# LAMMPS input script for NEB calculation

units metal
boundary p p p
atom_style atomic

# Read initial and final configurations
read_data POSCAR_initial
read_data POSCAR_final add append

# Define interatomic potential
include src/potential.mod

# Define NEB settings
neb 0.5 0.5 100 1000 final final

# Minimize each image
min_style quickmin
minimize 1.0e-4 1.0e-6 100 1000

# Output settings
thermo 100
thermo_style custom step pe lx ly lz press pxx pyy pzz

# Run NEB calculation
run 0