   # Initialize LAMMPS
units metal
dimension 3
boundary p p p
atom_style atomic

# Read data from POSCAR file
include src/structure.mod
include src/potential.mod

thermo 100
thermo_style custom step temp pe ke etotal press vol

# Define a region for frozen atoms
variable freeze_threshold equal FREEZE_THRESHOLD
region freeze_region block INF INF INF INF 0.0 ${freeze_threshold}

# Assign frozen atoms to the group
group frozen_atoms region freeze_region

# Apply freezing constraints only if freeze_threshold > 0
if "${freeze_threshold} > 0.0" then &
  "fix freeze frozen_atoms setforce 0.0 0.0 0.0" &
  "velocity frozen_atoms set 0.0 0.0 0.0"

fix 1 all box/relax iso 0.0

# Perform relaxation
min_style cg
minimize 1e-12 1e-2 15000 15000

unfix 1

# Perform relaxation
min_style cg
minimize 1e-12 1e-2 15000 15000

variable etotal equal pe
print "${etotal}" file energy.txt

write_data CONTCAR.data nocoeff
