Ni
 1.0000000000000000
    47.2794213000000028    0.0000000000000000    0.0000000000000000
     0.0000000000000000   63.0392283999999989    0.0000000000000000
     0.0000000000000000    0.0000000000000000   17.6200000000000010
 Ni 
 4800
Direct
 -0.0007408515116543 -0.0000000046882892 -0.0000000272471252
  0.7834260241410134  0.7376450287517736  0.1999999402665545
  0.6836159574316769  0.7129296260692465  0.1999998848475193
  0.8003740677588888  0.7005781853995754  0.1999999133755325
  0.7005706648173414  0.6758536206298665  0.1999999118971517
  0.7335215653691985  0.7252857328836910  0.2000000240670416
  0.6666667064577816  0.7500000067840530  0.1999998900413561
  0.3338091243872405  0.6882174774569142  0.2999999089678372
  0.6172373376533067  0.6758535998683868  0.2999997799338851
  0.6501882244700078  0.7252857682729161  0.3000001013741280
  0.5174233672883752  0.6511428673911303  0.2999998228817020
  0.5833333363634078  0.7499999944600861  0.2999997911086032
  0.6341828892159292  0.6387681680259015  0.2999999757068125
  0.5673213741590335  0.6635133941101892  0.2999999005529166
  0.6002825546853955  0.7129296251652523  0.2999998938556077
  0.4839880238205383  0.6635133874563368  0.1999999237354217
  0.8672373342532661  0.6758535467366408  0.2000000206739127
  0.7504757472258717  0.6882175044948822  0.2000000116857449
  0.5334260027172135  0.7376450245251172  0.2999999452297076
  0.6506546475023655  0.6635133851184991  0.1999999454344787
  0.9001882569512786  0.7252858021406705  0.1999999702039515
  0.8333332950302367  0.7499999713179106  0.2000000402819476
  0.7839039851972524  0.6758535867882816  0.2999999763350372
  0.8168549126914576  0.7252857722166604  0.2999999087260222
  0.6840900529543760  0.6511428879346611  0.3000000011095518
  0.7170407710437006  0.7005781758049926  0.2999998215756486
  0.7499999737889179  0.7499999855650576  0.3000000003091097
  0.8008495559375935  0.6387681941155008  0.2999998776991764
  0.7339880275813978  0.6635134031751188  0.2999999891577715
  0.7669492103202640  0.7129296308438200  0.2999999664117011
  0.6671424306589941  0.6882174673197347  0.2999999935178004
  0.7000926670968118  0.7376450378986740  0.2999999388093558
  0.8173213867914714  0.6635133525676249  0.2000000034794312
  0.7175162340383189  0.6387681538670313  0.1999999934191407
  0.5004757597885963  0.6882174989131105  0.2999999585583179
  0.7674233696729055  0.6511428498670464  0.2000000099352585
  0.5503740928109325  0.7005781969586758  0.3000000468199072
  0.5508495297550625  0.6387681833179483  0.1999999257289557
  0.4844747720056403  0.6016471363313611  0.2999999897711378
  0.3333333194448119  0.7499999956952585  0.1999999750061377
  0.2839039618985921  0.6758535889835519  0.2999999138588592
  0.3502825413009145  0.7129296170017930  0.1999999698154226
  0.4340900751913522  0.6511428662448498  0.1999998372230923
  0.4670407406656121  0.7005781747354457  0.2000000048064428
  0.3672372976109204  0.6758535964285731  0.2000000059624986
  0.4001882516071895  0.7252857417828084  0.1999998394716084
  0.3168549284020923  0.7252857758564655  0.2999999508221756
  0.3841828862307116  0.6387681668294706  0.1999999137934035
  0.4171424600664319  0.6882174981295911  0.1999999368029190
  0.1840900268564060  0.6511428900726004  0.2999999385098061
  0.2170407706181736  0.7005781501548762  0.2999999540404500
  0.2499999646045200  0.7500000220830091  0.2999999518600611
  0.3008495339971188  0.6387681731951598  0.3000000334690637
  0.3667592850597536  0.7376450340571472  0.2999999960589491
  0.9825766063808057  0.8488571302356727  0.5000000503869427
  0.4336159169608384  0.7129296007701975  0.2999998877554206
  0.4675162477795970  0.6387681439324983  0.2999998249646684
  0.5838091235948015  0.6882174716754762  0.1999999381138280
  0.9670407520241296  0.7005781330220344  0.1999999995910551
  0.6167592931560156  0.7376450284893705  0.1999999910411742
  0.4500926774354067  0.7376450377229905  0.1999999714103980
  0.5169492111979669  0.7129296305748931  0.1999999714718243
  0.6007567356401646  0.6511428936655735  0.1999999818147154
  0.6337074046148928  0.7005781529875729  0.1999999988005327
  0.5339039582978656  0.6758535759737987  0.1999998703718076
  0.5668549341741917  0.7252857682658660  0.1999999993854494
  0.5000000008202207  0.7499999932041937  0.1999998855644640
  0.4505706794326195  0.6758536377802454  0.2999999831484281
  0.4835215801350923  0.7252857325800232  0.2999998102406091
  0.3507567183656521  0.6511429014893811  0.2999999072425211
  0.3837074089816276  0.7005781520133038  0.2999999056788972
  0.4166666982193794  0.7500000324451844  0.3000000147901485
  0.4006546689093204  0.6635134040647352  0.2999999924229506
  0.2339880287552911  0.6635134125164475  0.2999998298878141
  0.2669492416386747  0.7129296220924408  0.3000000838744301
  0.8841828586081655  0.6387682041081961  0.1999998922592747
  0.4011414285701482  0.6016471269116009  0.2000000049038483
  0.3342515940358036  0.6264708877657001  0.1999998974444508
  0.3178081010156907  0.6016471170467477  0.2999999407427958
  0.1851400427470514  0.5263010515543509  0.2999999862231784
  0.2179968156315187  0.5769868665103984  0.2999999560246987
  0.2509182805457124  0.6264709006347505  0.2999999341178808
  0.1671424297687998  0.6882174719677354  0.3000000702212828
  0.3016283565143932  0.5175078069777675  0.2999999572056685
  0.2352901146839138  0.5396003623822043  0.2999999496587180
  0.2677921417518400  0.5894892811725122  0.2999999392813080
  0.2010486843893100  0.6140815844188927  0.3000000056799654
  0.3186234550945770  0.5396003631344227  0.1999998682684747
  0.2182950196468700  0.5175078206592589  0.1999999379849097
  0.2513715291271578  0.5643651483508527  0.1999999685990305
  0.9340900439066468  0.6511429251637729  0.1999999481085017
  0.3518067181750813  0.5263010390042353  0.2999999550653789
  0.3677938335922193  0.5527583028863019  0.1999999227288131
  0.1844588008947644  0.5894892582627278  0.1999999648179052
  0.2684733756001371  0.5263010399642799  0.1999999602785275
  0.3846634837643785  0.5769868844699468  0.2999998987267908
  0.4175849303544960  0.6264708737580097  0.2999999156521670
  0.4682949980415735  0.5175078728136046  0.2999999416636426
  0.4019567827389889  0.5396003584698211  0.2999999323113681
  0.4344587909957471  0.5894892945157539  0.2999999575223092
  0.3347048636062984  0.5643651618386931  0.2999999265827835
  0.3677153650570003  0.6140815753461728  0.2999999478382304
  0.4852900866968404  0.5396003412040256  0.2000000157300099
  0.3849616736795558  0.5175078177787353  0.1999999703383506
  0.4180381994641288  0.5643651456157482  0.1999999160631194
  0.4510487016453508  0.6140816015039265  0.1999999916536208
  0.3511254854386900  0.5894892875526412  0.1999999495126981
  0.4351400504578786  0.5263010464584795  0.2000000040574311
  0.4679968355831252  0.5769868752703498  0.1999998776691393
  0.2843820015144642  0.6140815706046615  0.1999999747333996
  0.2844604739355404  0.5527583006342047  0.2999999644731250
  0.1680381999846037  0.5643651508796339  0.2999999001005846
  0.3013301467578002  0.5769868839303518  0.1999999688844050
  0.9500926203745478  0.7376450615917061  0.1999999204765450
  0.9166666665988651  0.7500000040816440  0.2999998090878359
  0.9675162293817000  0.6387681524959247  0.3000000287092243
  0.0009182666053816  0.6264708547538692  0.2000000202527476
  0.9505706487767275  0.6758536132804385  0.2999998113070170
  0.9835215880095591  0.7252857510987196  0.3000000559366672
  0.8507567036675815  0.6511429131931828  0.2999998329704416
  0.8837074414012402  0.7005781507848450  0.3000000518182944
  0.9006546991988279  0.6635134052266256  0.2999998713460523
  0.1346635049312949  0.5769868861615899  0.1999999235776894
  0.0344605062297153  0.5527582688517919  0.1999999223818394
  0.9336158952303150  0.7129296135598547  0.3000000017345830
  0.8338091166309670  0.6882174659605743  0.3000000207973800
  0.8667593070052655  0.7376450469645008  0.2999999633606781
  0.9839879948268728  0.6635134166526365  0.1999999213980158
  0.0177921386107086  0.5894893061383860  0.1999999377334254
  0.9171424683088943  0.6882174464358842  0.1999999890763035
  0.0847048484987965  0.5643651381134452  0.1999999466058659
  0.1519567849088928  0.5396003825688253  0.1999999604964490
  0.2011271427212934  0.5527583031107581  0.1999999807724871
  0.8502825292173488  0.7129296518686598  0.1999999458207297
  0.2344747876684842  0.6016471226464637  0.1999999654731635
  0.0678081016123929  0.6016471368047123  0.1999999227058786
  0.1675849123158101  0.6264709239779161  0.1999999217517829
  0.1177938323618071  0.5527582639351937  0.2999999689689140
  0.1511414528780319  0.6016471075720423  0.2999999678178865
  0.0184733828678221  0.5263010321106470  0.2999999201290418
  0.0513301670799288  0.5769868761432044  0.3000000083546008
  0.0842515594002722  0.6264709029148122  0.2999999087233352
  0.1349616809592256  0.5175078474880023  0.2999999743959438
  0.0686234452561591  0.5396003531692853  0.2999999055296695
  0.1011254576165511  0.5894892767387888  0.2999999941561735
  0.0013715308520042  0.5643651372654619  0.3000000289866085
  0.0343820130956717  0.6140816083452016  0.2999998114351074
  0.0516283262956703  0.5175078556761051  0.1999999428030100
  0.0648599568511049  0.9736989603527529 -0.0000000291666001
  0.1177153579454871  0.6140815948544215  0.1999999331270284
  0.7160960102788074  0.8241464040412125  0.3000000013826479
  0.3827627121445949  0.8241463923323351  0.2999999548435292
  0.4157484125971249  0.8735291026543182  0.2999999297826796
  0.3997174116859820  0.7870703813489518  0.2999999883936112
  0.4326786234599700  0.8364866166056895  0.2999999107662820
  0.3328575645895159  0.8117825164646129  0.2999999282769304
  0.3658171211430851  0.8612318390126446  0.2999999684571068
  0.2325766090456930  0.8488571105442264  0.2000000337941501
  0.4830507632854417  0.7870703794187326  0.2000000215647592
  0.3832406836886336  0.7623549695459990  0.1999998923531178
  0.4161908776022670  0.8117825379160349  0.1999999833956971
  0.3493453044594735  0.8364866035393537  0.1999998870888331
  0.4331451097428419  0.7747142373685075  0.1999999880357571
  0.4660960341838427  0.8241464154830477  0.1999999424091398
  0.3662925809664893  0.7994218384731925  0.1999999677325955
  0.1162925563778039  0.7994218412329684  0.2999998963226974
  0.5993452813600352  0.8364865879876511  0.3000000495733265
  0.3498117401749225  0.7747142426943316  0.2999999587550126
  0.3324150712245322  0.8735291095733612  0.1999999936567587
  0.2829592549446308  0.7994218137971062  0.2999999874749069
  0.4995242372465006  0.8117824822645106  0.2999999732191325
  0.5324837869918577  0.8612318350839790  0.2999999469340741
  0.6497174612438550  0.7870703953690928  0.1999998983265730
  0.5499073610534768  0.7623549796850803  0.1999999298199319
  0.5828575697985632  0.8117825023378360  0.1999999779839612
  0.6158171413591459  0.8612318663063763  0.1999998544850330
  0.5160119731084051  0.8364866489648520  0.1999999345896118
  0.5998117200727341  0.7747142438805656  0.2000000171217360
  0.6327626955522295  0.8241463823601499  0.1999999077086323
  0.5329592657403829  0.7994218127788560  0.1999999932797815
  0.5659099132989647  0.8488571260311606  0.1999999821156218
  0.4990817691419433  0.8735290844054507  0.1999999720650223
  0.4496259150343998  0.7994218007339960  0.2999998836369958
  0.4825766030408424  0.8488571366354244  0.2999999190048646
  0.3992432867877813  0.8488571088575184  0.1999999966433374
  0.4665739751148829  0.7623549699712375  0.2999999066839765
  0.4491504438254371  0.8612318278313027  0.1999999519416968
  0.3159099078362617  0.8488571350244978  0.2999999212213684
  0.2175162435054317  0.6387681755062430  0.1999999002904438
  0.0324837781574253  0.8612318374152348  0.2999998999841990
  0.1497174375867748  0.7870703961062062  0.1999998502722015
  0.0824150598118001  0.8735291109370897  0.2999998140678700
  0.1332406846942480  0.7623549443626083  0.3000000278873250
  0.0663841115377340  0.7870704028033024  0.2999999247568605
  0.0993453345853988  0.8364866112402026  0.2999999325106641
 -0.0004757704849393  0.8117825025490002  0.2999999810938559
  0.0499073236514163  0.7623549858528751  0.1999998812645725
  0.1492432926924252  0.8488570867921992  0.3000000616126229
  0.0164784035353002  0.7747142733197853  0.2999998570742928
  0.0828575863010155  0.8117824861089359  0.1999999942560890
  0.1158170760724116  0.8612318516305547  0.1999999122915511
  0.0160119250382259  0.8364866393321069  0.1999999170846079
  0.0998117302880206  0.7747142901340807  0.1999998653982406
  0.1657484081713902  0.8735291270099370  0.1999998358041879
  0.7999073726924105  0.7623549505364109  0.2999998734257790
  0.1996258961390847  0.7994218506100009  0.1999998497877458
  0.2664784305849346  0.7747142422588315  0.1999999706020949
  0.1831450917967869  0.7747142132933716  0.2999999934809574
  0.5663840836587387  0.7870704013041148  0.2999999285086226
  0.2160960187309319  0.8241464443704968  0.2999999352364294
  0.0494293569938196  0.8241463831032804  0.3000001193839760
  0.2490817541788207  0.8735290802404724  0.3000000375432551
  0.2999073667996016  0.7623549891641027  0.2999999121991879
  0.2330507836654372  0.7870703530779125  0.2999999701376377
  0.2660119656000077  0.8364866475879839  0.2999999841719613
  0.1661908752695181  0.8117825504370374  0.3000000142930418
  0.1991504757659948  0.8612318120286379  0.2999999358545017
  0.3163840801403788  0.7870703600132941  0.2000000194212911
  0.2165740066121870  0.7623549304603009  0.2000000540768684
  0.2495242231634274  0.8117825231260246  0.1999998418001102
  0.2824838088557836  0.8612318368771908  0.2000000648715276
  0.1826786559146055  0.8364865915263399  0.1999999876745151
  0.2994293538529989  0.8241464229526920  0.1999999016903154
  0.1018066969524414  0.5263010415532530  0.1999999085957818
  0.2000926689193632  0.7376450632846945  0.2999998584406449
  0.6492432970253253  0.8488571332517981  0.2999998821247971
  0.0004757820554839  0.6882174949219978  0.2999998563337009
  0.0334259926742624  0.7376450270937288  0.3000000261621238
  0.0508495519741604  0.6387681343045771  0.2000000578847005
  0.0838090982467435  0.6882175218142402  0.1999998947426595
  0.1167593235601135  0.7376449935285021  0.2000000110876074
  0.0169492564539363  0.7129295713076940  0.2000000036757783
  0.3173213630043915  0.6635134176445298  0.1999999379872277
  0.1007567555924132  0.6511428652807274  0.1999999898064874
  0.1337073959463213  0.7005782085948725  0.1999999027644092
  0.0339039697921276  0.6758536735955140  0.1999999007778174
 -0.0000000118399012  0.7500000623310535  0.1999998793667030
  0.9496259037627998  0.7994218142111374  0.3000001740314108
  0.9825766017934207  0.8488571332654348  0.2999998170431263
  0.8498117413160124  0.7747142155592004  0.3000000556542744
  0.6332406522821380  0.7623549504741333  0.2999999783760530
  0.2504757384984755  0.6882174458009820  0.1999999773420581
  0.1002825855734672  0.7129296667399965  0.2999998325146311
  0.9157484024999353  0.8735291173707714  0.3000001000822951
  0.9665740076175134  0.7623549821523641  0.2999998964497170
  0.2834259975109314  0.7376450499640793  0.1999998958911839
  0.1836159130604094  0.7129296551231904  0.1999998869011574
  0.2674233513960725  0.6511429014445120  0.1999999639032605
  0.3003741252787437  0.7005781629296866  0.1999999022510233
  0.2005707083365799  0.6758535911198412  0.2000000151120696
  0.2335215505507578  0.7252857714870150  0.1999998943159392
  0.1666667122658677  0.7500000006046668  0.2000000642914185
  0.1172373210686931  0.6758535726544099  0.2999999673347147
  0.1501882101320826  0.7252857598520555  0.2999999518276911
  0.0174234096453917  0.6511428645792028  0.3000000453121613
  0.0503740719714146  0.7005781834432212  0.2999997724245215
  0.0833333420618392  0.7499999904147622  0.3000000651983274
  0.1341828969141528  0.6387681848248078  0.2999999019056482
  0.0673213583545053  0.6635133754837209  0.3000000563866247
  0.8827626495720676  0.8241464050611084  0.2999997850809951
  0.1506546878372088  0.6635133584578224  0.2000000454582259
  0.0668549176425912  0.7252857223683712  0.2000000554165890
  0.8997174515209164  0.7870703699842319  0.2999999597878745
  0.5494293652690856  0.8241463946827048  0.2999998329297922
  0.6826786370646707  0.8364865769806100  0.1999999953828567
  0.7664784559992663  0.7747142481279636  0.1999999332161663
  0.6991504249610545  0.8612318293676864  0.3000000014376032
  0.8163840660598662  0.7870703903657286  0.2000000348632786
  0.7165739875042876  0.7623549499496540  0.2000000019703861
  0.7495242676058649  0.8117825404437079  0.1999999823472331
  0.7824837726172482  0.8612318211990176  0.1999999777328982
  0.7994292886628015  0.8241463829688462  0.1999999952079074
  0.7330507482841390  0.7870703719261701  0.3000000090137773
  0.7660120082867762  0.8364866010242561  0.2999998512079033
  0.6996258643172842  0.7994218430405540  0.2000000200486679
  0.7325766155425267  0.8488571105883559  0.1999999148942033
  0.6657483600998609  0.8735291242238081  0.2000000028542285
  0.6162925273178134  0.7994218422201137  0.2999999918501628
  0.7490817486033285  0.8735291221943319  0.2999999490330041
  0.5164784110945205  0.7747142612974228  0.3000000567733833
  0.6831451028635257  0.7747142601669037  0.2999998622054373
  0.7829592372663070  0.7994218586692867  0.2999999044528432
  0.9326786551880210  0.8364866126491539  0.2999999536601011
  0.5824150609199348  0.8735291155139790  0.2999999837730081
  0.8328575711010807  0.8117825242161185  0.2999999480436486
  0.6661908980614246  0.8117825140481482  0.2999999107355227
  0.8658171167902484  0.8612318280276644  0.2999999486136245
  0.9830508152226752  0.7870703230257725  0.1999999560697682
  0.8832407183457960  0.7623549369515077  0.1999999727477016
  0.9161908330457942  0.8117825409121856  0.1999999915303012
  0.9491505110575079  0.8612317967477620  0.1999999981165173
  0.8493453406473028  0.8364865980846917  0.1999999211504147
  0.9331450607913578  0.7747142024252516  0.1999999663063584
  0.9660960270175076  0.8241464762057581  0.1999999391016062
  0.8662926018067318  0.7994218656427486  0.1999999629470328
  0.8992432408617302  0.8488570662516689  0.1999999654205627
  0.8324150864249348  0.8735291126050581  0.1999999654248674
  0.8159099430254106  0.8488571182932859  0.2999999964118727
  0.1327626758373198  0.8241463747856912  0.2000000052033621
  0.0329592209701916  0.7994217875676941  0.2000000007624774
  0.6346634737075616  0.5769868911647855  0.2000000005130486
  0.2824837566591538  0.8612318146430370  0.3999998194798298
  0.1826786131682451  0.8364866044236260  0.3999999134158619
  0.2994293318308384  0.8241464020013167  0.3999999739881988
  0.1996258918078495  0.7994218470605472  0.3999999524424062
  0.2325766168739094  0.8488571266531514  0.3999998684560514
  0.1657483660696402  0.8735291091236608  0.3999999917019004
  0.8319618036720576  0.9356348686837563  0.5000000315459447
  0.1162925937962662  0.7994218460655739  0.4999999386626412
  0.1492432682633825  0.8488571284351865  0.4999999468391670
  0.0164784124241131  0.7747142464073863  0.5000000449169072
  0.0824150912360592  0.8735291036098486  0.5000000052958161
  0.1332406991665981  0.7623549700756438  0.4999999268901693
  0.0663840911803837  0.7870703660128117  0.4999999924571472
  0.0993453428351095  0.8364866056898143  0.5000000010411569
  0.9822079032218862  0.9105107066742353  0.3999999850979490
  0.3662925720879399  0.7994218519900251  0.3999999446621815
  0.2495242391533752  0.8117825261669342  0.4000000094186689
  0.0324837654045511  0.8612318269189340  0.4999999644572194
  0.1497174371217525  0.7870703619857682  0.4000000275261016
  0.3992432692173764  0.8488571091358657  0.3999999522460845
  0.3324151132110579  0.8735291179137792  0.3999999337142516
  0.2829592372624794  0.7994218252749518  0.4999999164211482
  0.3159099692910652  0.8488571135350123  0.4999999607041116
  0.1831450684247294  0.7747142388783484  0.4999999477594401
  0.2160960315394487  0.8241464133027220  0.4999999183453532
  0.2490817359481887  0.8735291325308036  0.4999999715431714
  0.2999073390876083  0.7623549790527030  0.4999999443140712
  0.2330507922506162  0.7870703821984275  0.4999999772078009
  0.2660119896080855  0.8364865950866166  0.4999999069419643
  0.1661908880348247  0.8117825122521876  0.4999999191022137
  0.1991504358325954  0.8612318350384724  0.5000000261907219
  0.3163841006891330  0.7870703741570966  0.3999999241250350
  0.2165740054257012  0.7623549798121730  0.3999998605541262
 -0.0004757671766944  0.8117825358129872  0.4999998986344261
  0.2664784239198980  0.7747142452487443  0.3999999135112748
  0.0494293070963347  0.8241464051949461  0.4999998754785592
  0.0499073664785216  0.7623549246175200  0.3999999750813121
  0.5009182630973938  0.6264708954286700  0.2000000306072169
  0.8340742052531528  0.5000000060351335  0.3999999788902486
  0.7820031524673210  0.9230131432414487  0.5000000099026333
  0.8480432458772644  0.9603996658959191  0.3999999853811216
  0.9321918873728419  0.8983528533971766  0.3999999529802962
  0.9655394951066629  0.9472417483317528  0.3999999791874790
  0.8653365223766263  0.9230131231027044  0.3999999212274752
  0.8981932894917490  0.9736989522510566  0.3999999613848044
  0.8148599623954066  0.9736989597224871  0.4999999475468229
  0.8822846693176913  0.8859184102235078  0.3999999991268756
  0.9152951357197582  0.9356348628379472  0.3999999276893166
  0.6821918727483701  0.8983529142655918  0.4999999532902133
  0.7155395251782140  0.9472417030835548  0.4999999416823002
  0.7507408642431928  0.4999999918930260  0.4999999780470831
  0.7989513217726893  0.8859183924521785  0.4999999064683678
  0.8650383216353417  0.9824921406028632  0.4999999810595479
  0.5678080858802497  0.6016471227202164  0.1999999211671949
  0.9313765383639576  0.9603996438838198  0.4999999460117278
  0.9656179757851380  0.8859184191953414  0.4999999482419640
  0.0828575362610872  0.8117825319044611  0.3999998848233950
  0.4660960377250034  0.8241464358363984  0.3999999995218879
  0.1158171497230294  0.8612318316459839  0.3999999643159264
  0.9483716594982772  0.9824921528849114  0.3999999530947079
  0.0160120580655826  0.8364865858294297  0.3999999814150206
  0.0998117494697753  0.7747142255813443  0.3999999772485118
  0.1327626778652471  0.8241464243810014  0.3999999344803800
  0.0329592546118368  0.7994218602119331  0.3999999460903654
  0.0659099156644023  0.8488570966342264  0.3999999174428828
 -0.0009182395032992  0.8735291528336558  0.4000000041448700
  0.9486698491206328  0.9230131246695724  0.5000000058990416
  0.9815266271036207  0.9736989647993471  0.4999999518578830
  0.8488585688278962  0.8983528640040626  0.4999999422894443
  0.8822061597461770  0.9472417553530459  0.4999999356677718
  0.9174075264309134  0.4999999932267651  0.4999999734107723
  0.8988745289426364  0.9105107025768925  0.4999999599529560
  0.7322078632289326  0.9105107539033853  0.5000000061795836
  0.7647098780654492  0.9603996261335153  0.4999998921743924
  0.3832406980094314  0.7623549628536626  0.3999998745836637
  0.8992433027517911  0.8488571465451888  0.3999999357705075
  0.8324150521091277  0.8735290964280064  0.4000000050402533
  0.8159099187138980  0.8488571613615395  0.4999999034556076
  0.6831450495802720  0.7747142288763437  0.5000000984869916
  0.7160960221497837  0.8241464326353766  0.4999998882535129
  0.7490817704789502  0.8735290733997479  0.4999999573899880
  0.6652951466264621  0.9356348419904728  0.4999998729306541
  0.7999073337596976  0.7623549827725707  0.4999999199627246
  0.7330507983224370  0.7870703377950217  0.4999998947753342
  0.7660119540251122  0.8364866502470181  0.5000000441225431
  0.6991504738646390  0.8612318059474716  0.4999999334351840
  0.8163841438508237  0.7870703774227570  0.3999999763990861
  0.7165740766635257  0.7623549624483974  0.3999999012393026
  0.7495242003402205  0.8117825171726650  0.3999999134456313
  0.4331450837371654  0.7747142223265477  0.3999998757117935
  0.8498117353072863  0.7747142730500161  0.4999998787458159
  0.8662925469553600  0.7994218209079296  0.4000000394536600
  0.6826786620615117  0.8364866013745293  0.3999999542019760
  0.7664783971039081  0.7747142316077344  0.4000000560285928
  0.8827626728315174  0.8241463629603677  0.4999999569391773
  0.9157484018496476  0.8735291283304661  0.4999999073327582
  0.9665740001111227  0.7623549648115946  0.4999999670869250
  0.8997174024167487  0.7870703918167400  0.4999999469339110
  0.9326786614540596  0.8364865846386750  0.4999999823373618
  0.8328575827962361  0.8117824784036026  0.4999999132197599
  0.8658171206805051  0.8612318597839466  0.5000000052938562
  0.9830507427765529  0.7870703957599733  0.3999999186109492
  0.8832406698700742  0.7623549782216883  0.3999999605128511
  0.9161909508169382  0.8117825034831646  0.4000000350221822
  0.9491504025820435  0.8612318545985319  0.3999999152782804
  0.8493452919649960  0.8364866130580831  0.3999999394817129
  0.9331450908432610  0.7747142910959982  0.3999999042383166
  0.9660959876827493  0.8241463558339277  0.3999999305015061
  0.7824837940586197  0.8612318479300657  0.4000000376761839
  0.7829592546194639  0.7994217873495459  0.4999999977730236
  0.6661908660263162  0.8117825272651872  0.4999999795586549
  0.7994293568882718  0.8241464050814886  0.3999998324838783
  0.4491504569661031  0.8612318290398714  0.3999999477877906
  0.4157484260179456  0.8735291239073383  0.5000000112404852
  0.4665740432181715  0.7623549457416926  0.4999998863979908
  0.4990817473088473  0.8735290902307570  0.3999999307434931
  0.4496259232388258  0.7994218518507620  0.5000000565736290
  0.4825766053169706  0.8488571219518706  0.4999998272063670
  0.3498117711992680  0.7747142543606074  0.4999999975354162
  0.3827626836190153  0.8241463781757874  0.4999998659097937
  0.3997174153309488  0.7870703942112839  0.4999999040329279
  0.6327626558586423  0.8241463672768821  0.4000000112055917
  0.5329591951309860  0.7994217784175583  0.3999999253476099
  0.4326786511002019  0.8364866106050602  0.4999999204002966
  0.3328575652924555  0.8117825223721238  0.4999999210246961
  0.3658170790822071  0.8612318349962772  0.4999999364017155
  0.4830508217566786  0.7870703639253681  0.3999999070287517
  0.5160119609889556  0.8364866230179077  0.3999999577340779
  0.4161908495952907  0.8117825411454417  0.3999999725785359
  0.5828576217420386  0.8117825109129886  0.3999998561918097
  0.6497173788276239  0.7870703974970175  0.4000000051044036
  0.6996259548243399  0.7994218586493853  0.3999998945252468
  0.3493453101029101  0.8364866010793393  0.3999999305112883
  0.7325765803366240  0.8488571202088504  0.4000000060650454
  0.5659099598120222  0.8488571396939970  0.3999999789698767
  0.6657484367565796  0.8735291196756456  0.3999998984689947
  0.6162925932530141  0.7994218299266793  0.4999997333922045
  0.6492432642212302  0.8488570939701595  0.5000000537442867
  0.5164784342368595  0.7747142158520880  0.4999996861271936
  0.5494293464966171  0.8241464175605591  0.5000001001644347
  0.5824150720160978  0.8735291006362205  0.4999998401995733
  0.6332407070307408  0.7623549688401280  0.4999999733192080
  0.5663840945342687  0.7870703658460584  0.4999998952414275
  0.5993453140553270  0.8364866114137016  0.4999998972746162
  0.4995242145095102  0.8117825398366459  0.4999999288082612
  0.5324837766591985  0.8612318351757043  0.4999999166684923
  0.5499072797485203  0.7623550004121490  0.4000000051429991
  0.5344605226842313  0.5527582516415878  0.1999999399271738
  0.6158171008601601  0.8612318283348432  0.3999999554909197
  0.0659099548754446  0.8488571680762117  0.1999998984660007
  0.8846634751302056  0.5769868729355662  0.2999999135511829
  0.9175849324973403  0.6264708848884611  0.3000000160954304
  0.9019567865350442  0.5396003541933009  0.2999999551734265
  0.9344588047529457  0.5894893026518913  0.2999999241694323
  0.8347048569384798  0.5643651798494633  0.2999999177746230
  0.8677153557296446  0.6140815631142420  0.3000000164162933
  0.7344747784100774  0.6016471434594424  0.1999999595014556
  0.9852901108064401  0.5396003502015053  0.2000000039370786
  0.8849616705352795  0.5175078422869013  0.1999999784355838
  0.9180381724031297  0.5643651714165768  0.1999999646469443
  0.8511254836242085  0.5894892537618899  0.1999999743232118
  0.9351400438363452  0.5263010451914226  0.2000000098561572
  0.9679968046760518  0.5769868933404804  0.1999999414635793
  0.8677938216375152  0.5527583174662781  0.1999999735478827
  0.6177938514906079  0.5527582832684318  0.2999999995133656
  0.0980432212471862  0.9603996493263671  0.4999999321078862
  0.8518067316194365  0.5263010283025895  0.2999999938430043
  0.8342515632292129  0.6264709343273716  0.1999999096831601
  0.7844604781469653  0.5527583054086264  0.2999999350598782
 -0.0013715379831746  0.9356348509819962  0.4999999725368224
  0.0317049922329927  0.9824921453834792  0.4999999747225924
  0.1488745190407877  0.9105107232588061  0.3999999527121490
  0.0489512867098262  0.8859184362162962  0.3999999672962163
  0.0819618001521854  0.9356348527487516  0.3999999255016393
  0.1150383210454384  0.9824921460578968  0.3999999885740926
  0.0147098725338634  0.9603996493715047  0.3999999308645844
  0.0988585886726088  0.8983528954457081  0.3999999580743798
  0.1322061788916104  0.9472417317623957  0.3999999687695442
  0.0320031654882258  0.9230131001820370  0.3999999323250431
  0.0648599397978053  0.9736989604067822  0.4000000002496720
  0.0007408533048795  0.4999999926711248  0.3999999748013983
  0.9511271720668059  0.5527582646724956  0.2999999467628474
  0.9844747610008421  0.6016471529963300  0.2999998978420078
  0.9011414395157613  0.6016471115951898  0.2000000228022141
  0.9682950099423788  0.5175078519864968  0.2999999303282412
  0.9510487130636541  0.6140815542172071  0.2000000320194277