# Initialize LAMMPS
units metal
dimension 3
boundary p p p
atom_style atomic

# Read data from POSCAR file
include src/structure.mod
include src/potential.mod

thermo_style custom step temp pe ke etotal vol
thermo 10

velocity all create TEMP_INIT 4928459 rot yes mom yes dist gaussian
variable dt equal 0.001  # Timestep in picoseconds
compute PE all pe

fix 1 all nvt temp TEMP_INIT TEMP_FINAL $(100.0*dt)

fix avePE all ave/time 1 20 20 c_PE ave one

timestep 0.001

run 10
 
variable etotal equal pe
print "${etotal}" file energy.txt

write_data CONTCAR.data nocoeff