   # Initialize LAMMPS
units metal
dimension 3
boundary p p p
atom_style atomic

# Read data from POSCAR file
include src/structure.mod
include src/potential.mod

thermo 100
thermo_style custom step temp pe ke etotal press vol

fix 1 all box/relax iso 0.0

# Perform relaxation
min_style cg
minimize 1e-10 1e-10 15000 15000

unfix 1

# Perform relaxation
min_style cg
minimize 1e-10 1e-10 15000 15000

variable etotal equal pe
print "${etotal}" file energy.txt

write_data CONTCAR.data nocoeff
