Ni
 1.0000000000000000
    24.6679999999999993    0.0000000000000000    0.0000000000000000
     0.0000000000000000   24.6679999999999993    0.0000000000000000
     0.0000000000000000    0.0000000000000000   24.6679999999999993
 Ni 
 1372
Direct
  0.0000000000000000  0.0000000000000000  0.0000000000000000
  0.6428571428571428  0.6428571428571428  0.7142857142857143
  0.6428571428571428  0.5714285714285714  0.7857142857142857
  0.5714285714285714  0.6428571428571428  0.7857142857142857
  0.5714285714285714  0.5714285714285714  0.7142857142857143
  0.6428571428571428  0.6428571428571428  0.5714285714285714
  0.6428571428571428  0.5714285714285714  0.6428571428571428
  0.5714285714285714  0.6428571428571428  0.6428571428571428
  0.5714285714285714  0.5714285714285714  0.5714285714285714
  0.6428571428571428  0.6428571428571428  0.4285714285714285
  0.6428571428571428  0.5714285714285714  0.4999999999999999
  0.5714285714285714  0.6428571428571428  0.4999999999999999
  0.5714285714285714  0.5714285714285714  0.4285714285714285
  0.6428571428571428  0.6428571428571428  0.2857142857142857
  0.6428571428571428  0.5714285714285714  0.3571428571428572
  0.5714285714285714  0.6428571428571428  0.3571428571428572
  0.5714285714285714  0.5714285714285714  0.2857142857142857
  0.6428571428571428  0.6428571428571428  0.1428571428571428
  0.5714285714285714  0.5714285714285714  0.8571428571428570
  0.6428571428571428  0.5714285714285714  0.2142857142857142
  0.5714285714285714  0.6428571428571428  0.9285714285714285
  0.6428571428571428  0.6428571428571428  0.8571428571428570
  0.5714285714285714  0.7142857142857143  0.5714285714285714
  0.6428571428571428  0.7857142857142857  0.4285714285714285
  0.6428571428571428  0.7142857142857143  0.4999999999999999
  0.5714285714285714  0.7857142857142857  0.4999999999999999
  0.5714285714285714  0.7142857142857143  0.4285714285714285
  0.6428571428571428  0.7857142857142857  0.2857142857142857
  0.6428571428571428  0.7142857142857143  0.3571428571428572
  0.5714285714285714  0.7857142857142857  0.3571428571428572
  0.5714285714285714  0.7142857142857143  0.2857142857142857
  0.6428571428571428  0.7857142857142857  0.1428571428571428
  0.6428571428571428  0.7142857142857143  0.2142857142857142
  0.5714285714285714  0.7857142857142857  0.2142857142857142
  0.5714285714285714  0.7142857142857143  0.1428571428571428
  0.6428571428571428  0.7857142857142857  0.0000000000000000
  0.6428571428571428  0.7142857142857143  0.0714285714285714
  0.5714285714285714  0.7857142857142857  0.0714285714285714
  0.5714285714285714  0.7142857142857143  0.0000000000000000
  0.6428571428571428  0.5714285714285714  0.9285714285714285
  0.5714285714285714  0.6428571428571428  0.2142857142857142
  0.5714285714285714  0.5714285714285714  0.1428571428571428
  0.6428571428571428  0.6428571428571428  0.0000000000000000
  0.5714285714285714  0.4285714285714285  0.2857142857142857
  0.6428571428571428  0.4999999999999999  0.1428571428571428
  0.6428571428571428  0.4285714285714285  0.2142857142857142
  0.5714285714285714  0.4999999999999999  0.2142857142857142
  0.5714285714285714  0.4285714285714285  0.1428571428571428
  0.6428571428571428  0.4999999999999999  0.0000000000000000
  0.6428571428571428  0.4285714285714285  0.0714285714285714
  0.5714285714285714  0.4999999999999999  0.0714285714285714
  0.5714285714285714  0.4285714285714285  0.0000000000000000
  0.6428571428571428  0.3571428571428572  0.8571428571428570
  0.6428571428571428  0.2857142857142857  0.9285714285714285
  0.5714285714285714  0.3571428571428572  0.9285714285714285
  0.5714285714285714  0.2857142857142857  0.8571428571428570
  0.6428571428571428  0.3571428571428572  0.7142857142857143
  0.6428571428571428  0.2857142857142857  0.7857142857142857
  0.5714285714285714  0.3571428571428572  0.7857142857142857
  0.5714285714285714  0.2857142857142857  0.7142857142857143
  0.5714285714285714  0.4999999999999999  0.3571428571428572
  0.6428571428571428  0.4285714285714285  0.3571428571428572
  0.6428571428571428  0.4999999999999999  0.2857142857142857
  0.5714285714285714  0.4285714285714285  0.4285714285714285
  0.6428571428571428  0.5714285714285714  0.0714285714285714
  0.5714285714285714  0.6428571428571428  0.0714285714285714
  0.5714285714285714  0.5714285714285714  0.0000000000000000
  0.6428571428571428  0.4999999999999999  0.8571428571428570
  0.6428571428571428  0.4285714285714285  0.9285714285714285
  0.5714285714285714  0.4999999999999999  0.9285714285714285
  0.5714285714285714  0.4285714285714285  0.8571428571428570
  0.6428571428571428  0.4999999999999999  0.7142857142857143
  0.5714285714285714  0.7857142857142857  0.6428571428571428
  0.6428571428571428  0.4285714285714285  0.7857142857142857
  0.5714285714285714  0.4285714285714285  0.7142857142857143
  0.6428571428571428  0.4999999999999999  0.5714285714285714
  0.6428571428571428  0.4285714285714285  0.6428571428571428
  0.5714285714285714  0.4999999999999999  0.6428571428571428
  0.5714285714285714  0.4285714285714285  0.5714285714285714
  0.6428571428571428  0.4999999999999999  0.4285714285714285
  0.6428571428571428  0.4285714285714285  0.4999999999999999
  0.5714285714285714  0.4999999999999999  0.4999999999999999
  0.5714285714285714  0.4999999999999999  0.7857142857142857
  0.6428571428571428  0.7142857142857143  0.6428571428571428
  0.6428571428571428  0.7857142857142857  0.5714285714285714
  0.5714285714285714  0.7142857142857143  0.7142857142857143
  0.7142857142857143  0.0000000000000000  0.8571428571428570
  0.7857142857142857  0.0714285714285714  0.7142857142857143
  0.7857142857142857  0.0000000000000000  0.7857142857142857
  0.7142857142857143  0.0714285714285714  0.7857142857142857
  0.7142857142857143  0.0000000000000000  0.7142857142857143
  0.7857142857142857  0.0714285714285714  0.5714285714285714
  0.7857142857142857  0.0000000000000000  0.6428571428571428
  0.7142857142857143  0.0714285714285714  0.6428571428571428
  0.7142857142857143  0.0000000000000000  0.5714285714285714
  0.7857142857142857  0.0714285714285714  0.4285714285714285
  0.7857142857142857  0.0000000000000000  0.4999999999999999
  0.7142857142857143  0.0714285714285714  0.4999999999999999
  0.7142857142857143  0.0000000000000000  0.4285714285714285
  0.7857142857142857  0.0714285714285714  0.2857142857142857
  0.7857142857142857  0.0000000000000000  0.3571428571428572
  0.7142857142857143  0.0714285714285714  0.3571428571428572
  0.7142857142857143  0.0000000000000000  0.2857142857142857
  0.7142857142857143  0.0714285714285714  0.9285714285714285
  0.7857142857142857  0.0000000000000000  0.9285714285714285
  0.7857142857142857  0.0714285714285714  0.8571428571428570
  0.7142857142857143  0.1428571428571428  0.0000000000000000
  0.7857142857142857  0.1428571428571428  0.6428571428571428
  0.7142857142857143  0.2142857142857142  0.6428571428571428
  0.7142857142857143  0.1428571428571428  0.5714285714285714
  0.7857142857142857  0.2142857142857142  0.4285714285714285
  0.7857142857142857  0.1428571428571428  0.4999999999999999
  0.7142857142857143  0.2142857142857142  0.4999999999999999
  0.7142857142857143  0.1428571428571428  0.4285714285714285
  0.7857142857142857  0.2142857142857142  0.2857142857142857
  0.7857142857142857  0.0714285714285714  0.1428571428571428
  0.7857142857142857  0.1428571428571428  0.3571428571428572
  0.7142857142857143  0.1428571428571428  0.2857142857142857
  0.7857142857142857  0.2142857142857142  0.1428571428571428
  0.7857142857142857  0.1428571428571428  0.2142857142857142
  0.7142857142857143  0.2142857142857142  0.2142857142857142
  0.7142857142857143  0.1428571428571428  0.1428571428571428
  0.7857142857142857  0.2142857142857142  0.0000000000000000
  0.7857142857142857  0.1428571428571428  0.0714285714285714
  0.7142857142857143  0.2142857142857142  0.0714285714285714
  0.7142857142857143  0.2142857142857142  0.3571428571428572
  0.6428571428571428  0.3571428571428572  0.5714285714285714
  0.7857142857142857  0.0000000000000000  0.2142857142857142
  0.7142857142857143  0.0000000000000000  0.1428571428571428
  0.5714285714285714  0.9285714285714285  0.3571428571428572
  0.5714285714285714  0.8571428571428570  0.2857142857142857
  0.6428571428571428  0.9285714285714285  0.1428571428571428
  0.6428571428571428  0.8571428571428570  0.2142857142857142
  0.5714285714285714  0.9285714285714285  0.2142857142857142
  0.5714285714285714  0.8571428571428570  0.1428571428571428
  0.6428571428571428  0.9285714285714285  0.0000000000000000
  0.6428571428571428  0.8571428571428570  0.0714285714285714
  0.5714285714285714  0.9285714285714285  0.0714285714285714
  0.5714285714285714  0.8571428571428570  0.0000000000000000
  0.6428571428571428  0.7857142857142857  0.8571428571428570
  0.6428571428571428  0.7142857142857143  0.9285714285714285
  0.5714285714285714  0.7857142857142857  0.9285714285714285
  0.5714285714285714  0.7142857142857143  0.8571428571428570
  0.6428571428571428  0.7857142857142857  0.7142857142857143
  0.6428571428571428  0.7142857142857143  0.7857142857142857
  0.5714285714285714  0.7857142857142857  0.7857142857142857
  0.6428571428571428  0.8571428571428570  0.3571428571428572
  0.6428571428571428  0.9285714285714285  0.2857142857142857
  0.5714285714285714  0.8571428571428570  0.4285714285714285
  0.5714285714285714  0.9285714285714285  0.4999999999999999
  0.7857142857142857  0.0714285714285714  0.0000000000000000
  0.7857142857142857  0.0000000000000000  0.0714285714285714
  0.7142857142857143  0.0714285714285714  0.0714285714285714
  0.7142857142857143  0.0000000000000000  0.0000000000000000
  0.6428571428571428  0.9285714285714285  0.8571428571428570
  0.6428571428571428  0.8571428571428570  0.9285714285714285
  0.5714285714285714  0.9285714285714285  0.9285714285714285
  0.5714285714285714  0.8571428571428570  0.8571428571428570
  0.7142857142857143  0.0714285714285714  0.2142857142857142
  0.6428571428571428  0.9285714285714285  0.7142857142857143
  0.5714285714285714  0.9285714285714285  0.7857142857142857
  0.5714285714285714  0.8571428571428570  0.7142857142857143
  0.6428571428571428  0.9285714285714285  0.5714285714285714
  0.6428571428571428  0.8571428571428570  0.6428571428571428
  0.5714285714285714  0.9285714285714285  0.6428571428571428
  0.5714285714285714  0.8571428571428570  0.5714285714285714
  0.6428571428571428  0.9285714285714285  0.4285714285714285
  0.6428571428571428  0.8571428571428570  0.4999999999999999
  0.6428571428571428  0.8571428571428570  0.7857142857142857
  0.6428571428571428  0.2857142857142857  0.6428571428571428
  0.5714285714285714  0.3571428571428572  0.6428571428571428
  0.5714285714285714  0.2857142857142857  0.5714285714285714
  0.4999999999999999  0.7857142857142857  0.5714285714285714
  0.4999999999999999  0.7142857142857143  0.6428571428571428
  0.4285714285714285  0.7857142857142857  0.6428571428571428
  0.4285714285714285  0.7142857142857143  0.5714285714285714
  0.4999999999999999  0.7857142857142857  0.4285714285714285
  0.4999999999999999  0.7142857142857143  0.4999999999999999
  0.4285714285714285  0.7857142857142857  0.4999999999999999
  0.4285714285714285  0.7142857142857143  0.4285714285714285
  0.4999999999999999  0.7857142857142857  0.2857142857142857
  0.4999999999999999  0.7142857142857143  0.3571428571428572
  0.4285714285714285  0.7857142857142857  0.3571428571428572
  0.4285714285714285  0.7142857142857143  0.2857142857142857
  0.4999999999999999  0.7857142857142857  0.1428571428571428
  0.4999999999999999  0.7142857142857143  0.2142857142857142
  0.4285714285714285  0.7857142857142857  0.2142857142857142
  0.4285714285714285  0.7142857142857143  0.1428571428571428
  0.4999999999999999  0.7857142857142857  0.0000000000000000
  0.4285714285714285  0.7142857142857143  0.7142857142857143
  0.4285714285714285  0.7857142857142857  0.7857142857142857
  0.4999999999999999  0.7142857142857143  0.7857142857142857
  0.4999999999999999  0.7857142857142857  0.7142857142857143
  0.4285714285714285  0.9285714285714285  0.4999999999999999
  0.4285714285714285  0.8571428571428570  0.4285714285714285
  0.4999999999999999  0.9285714285714285  0.2857142857142857
  0.4999999999999999  0.8571428571428570  0.3571428571428572
  0.4285714285714285  0.9285714285714285  0.3571428571428572
  0.4285714285714285  0.8571428571428570  0.2857142857142857
  0.4999999999999999  0.9285714285714285  0.1428571428571428
  0.4999999999999999  0.8571428571428570  0.2142857142857142
  0.4999999999999999  0.7142857142857143  0.0714285714285714
  0.4285714285714285  0.9285714285714285  0.2142857142857142
  0.4999999999999999  0.9285714285714285  0.0000000000000000
  0.4999999999999999  0.8571428571428570  0.0714285714285714
  0.4285714285714285  0.9285714285714285  0.0714285714285714
  0.4285714285714285  0.8571428571428570  0.0000000000000000
  0.4999999999999999  0.7857142857142857  0.8571428571428570
  0.4999999999999999  0.7142857142857143  0.9285714285714285
  0.4285714285714285  0.7857142857142857  0.9285714285714285
  0.4285714285714285  0.7142857142857143  0.8571428571428570
  0.4285714285714285  0.8571428571428570  0.1428571428571428
  0.4999999999999999  0.8571428571428570  0.4999999999999999
  0.4285714285714285  0.7857142857142857  0.0714285714285714
  0.4999999999999999  0.6428571428571428  0.8571428571428570
  0.4285714285714285  0.5714285714285714  0.1428571428571428
  0.4999999999999999  0.6428571428571428  0.0000000000000000
  0.4999999999999999  0.5714285714285714  0.0714285714285714
  0.4285714285714285  0.6428571428571428  0.0714285714285714
  0.4285714285714285  0.5714285714285714  0.0000000000000000
  0.4999999999999999  0.4999999999999999  0.8571428571428570
  0.4999999999999999  0.4285714285714285  0.9285714285714285
  0.4285714285714285  0.4999999999999999  0.9285714285714285
  0.4285714285714285  0.4285714285714285  0.8571428571428570
  0.4999999999999999  0.4999999999999999  0.7142857142857143
  0.4999999999999999  0.4285714285714285  0.7857142857142857
  0.4285714285714285  0.4999999999999999  0.7857142857142857
  0.4285714285714285  0.4285714285714285  0.7142857142857143
  0.4999999999999999  0.4999999999999999  0.5714285714285714
  0.4999999999999999  0.4285714285714285  0.6428571428571428
  0.4285714285714285  0.4999999999999999  0.6428571428571428
  0.4285714285714285  0.4285714285714285  0.5714285714285714
  0.4285714285714285  0.6428571428571428  0.2142857142857142
  0.4999999999999999  0.5714285714285714  0.2142857142857142
  0.4999999999999999  0.6428571428571428  0.1428571428571428
  0.4285714285714285  0.5714285714285714  0.2857142857142857
  0.4999999999999999  0.5714285714285714  0.9285714285714285
  0.4285714285714285  0.6428571428571428  0.9285714285714285
  0.4285714285714285  0.5714285714285714  0.8571428571428570
  0.4999999999999999  0.6428571428571428  0.7142857142857143
  0.4999999999999999  0.5714285714285714  0.7857142857142857
  0.4285714285714285  0.6428571428571428  0.7857142857142857
  0.4285714285714285  0.5714285714285714  0.7142857142857143
  0.4999999999999999  0.6428571428571428  0.5714285714285714
  0.4285714285714285  0.7142857142857143  0.0000000000000000
  0.4999999999999999  0.5714285714285714  0.6428571428571428
  0.4285714285714285  0.5714285714285714  0.5714285714285714
  0.4999999999999999  0.6428571428571428  0.4285714285714285
  0.4999999999999999  0.5714285714285714  0.4999999999999999
  0.4285714285714285  0.6428571428571428  0.4999999999999999
  0.4285714285714285  0.5714285714285714  0.4285714285714285
  0.4999999999999999  0.6428571428571428  0.2857142857142857
  0.4999999999999999  0.5714285714285714  0.3571428571428572
  0.4285714285714285  0.6428571428571428  0.3571428571428572
  0.4285714285714285  0.6428571428571428  0.6428571428571428
  0.7857142857142857  0.2142857142857142  0.5714285714285714
  0.4999999999999999  0.9285714285714285  0.4285714285714285
  0.4285714285714285  0.9285714285714285  0.6428571428571428
  0.5714285714285714  0.2142857142857142  0.7857142857142857
  0.5714285714285714  0.1428571428571428  0.7142857142857143
  0.6428571428571428  0.2142857142857142  0.5714285714285714
  0.6428571428571428  0.1428571428571428  0.6428571428571428
  0.5714285714285714  0.2142857142857142  0.6428571428571428
  0.5714285714285714  0.1428571428571428  0.5714285714285714
  0.6428571428571428  0.2142857142857142  0.4285714285714285
  0.6428571428571428  0.1428571428571428  0.4999999999999999
  0.5714285714285714  0.2142857142857142  0.4999999999999999
  0.5714285714285714  0.1428571428571428  0.4285714285714285
  0.6428571428571428  0.2142857142857142  0.2857142857142857
  0.6428571428571428  0.1428571428571428  0.3571428571428572
  0.5714285714285714  0.2142857142857142  0.3571428571428572
  0.5714285714285714  0.1428571428571428  0.2857142857142857
  0.6428571428571428  0.2142857142857142  0.1428571428571428
  0.6428571428571428  0.1428571428571428  0.2142857142857142
  0.5714285714285714  0.2142857142857142  0.2142857142857142
  0.6428571428571428  0.1428571428571428  0.7857142857142857
  0.6428571428571428  0.2142857142857142  0.7142857142857143
  0.5714285714285714  0.1428571428571428  0.8571428571428570
  0.5714285714285714  0.2142857142857142  0.9285714285714285
  0.6428571428571428  0.3571428571428572  0.4285714285714285
  0.6428571428571428  0.2857142857142857  0.4999999999999999
  0.5714285714285714  0.3571428571428572  0.4999999999999999
  0.5714285714285714  0.2857142857142857  0.4285714285714285
  0.6428571428571428  0.3571428571428572  0.2857142857142857
  0.6428571428571428  0.2857142857142857  0.3571428571428572
  0.5714285714285714  0.3571428571428572  0.3571428571428572
  0.5714285714285714  0.2857142857142857  0.2857142857142857
  0.5714285714285714  0.1428571428571428  0.1428571428571428
  0.6428571428571428  0.3571428571428572  0.1428571428571428
  0.5714285714285714  0.3571428571428572  0.2142857142857142
  0.5714285714285714  0.2857142857142857  0.1428571428571428
  0.6428571428571428  0.3571428571428572  0.0000000000000000
  0.6428571428571428  0.2857142857142857  0.0714285714285714
  0.5714285714285714  0.3571428571428572  0.0714285714285714
  0.5714285714285714  0.2857142857142857  0.0000000000000000
  0.6428571428571428  0.2142857142857142  0.8571428571428570
  0.6428571428571428  0.1428571428571428  0.9285714285714285
  0.6428571428571428  0.2857142857142857  0.2142857142857142
  0.4285714285714285  0.8571428571428570  0.5714285714285714
  0.6428571428571428  0.2142857142857142  0.0000000000000000
  0.5714285714285714  0.2142857142857142  0.0714285714285714
  0.6428571428571428  0.0000000000000000  0.2142857142857142
  0.5714285714285714  0.0714285714285714  0.2142857142857142
  0.5714285714285714  0.0000000000000000  0.1428571428571428
  0.6428571428571428  0.0714285714285714  0.0000000000000000
  0.6428571428571428  0.0000000000000000  0.0714285714285714
  0.5714285714285714  0.0714285714285714  0.0714285714285714
  0.5714285714285714  0.0000000000000000  0.0000000000000000
  0.4999999999999999  0.9285714285714285  0.8571428571428570
  0.4999999999999999  0.8571428571428570  0.9285714285714285
  0.4285714285714285  0.9285714285714285  0.9285714285714285
  0.4285714285714285  0.8571428571428570  0.8571428571428570
  0.4999999999999999  0.9285714285714285  0.7142857142857143
  0.4999999999999999  0.8571428571428570  0.7857142857142857
  0.4285714285714285  0.9285714285714285  0.7857142857142857
  0.4285714285714285  0.8571428571428570  0.7142857142857143
  0.4999999999999999  0.9285714285714285  0.5714285714285714
  0.4999999999999999  0.8571428571428570  0.6428571428571428
  0.6428571428571428  0.0714285714285714  0.1428571428571428
  0.5714285714285714  0.0000000000000000  0.2857142857142857
  0.5714285714285714  0.0714285714285714  0.3571428571428572
  0.6428571428571428  0.0000000000000000  0.3571428571428572
  0.5714285714285714  0.1428571428571428  0.0000000000000000
  0.6428571428571428  0.0714285714285714  0.8571428571428570
  0.6428571428571428  0.0000000000000000  0.9285714285714285
  0.5714285714285714  0.0714285714285714  0.9285714285714285
  0.5714285714285714  0.0000000000000000  0.8571428571428570
  0.6428571428571428  0.0714285714285714  0.7142857142857143
  0.6428571428571428  0.0000000000000000  0.7857142857142857
  0.5714285714285714  0.0714285714285714  0.7857142857142857
  0.6428571428571428  0.1428571428571428  0.0714285714285714
  0.5714285714285714  0.0000000000000000  0.7142857142857143
  0.6428571428571428  0.0000000000000000  0.6428571428571428
  0.5714285714285714  0.0714285714285714  0.6428571428571428
  0.5714285714285714  0.0000000000000000  0.5714285714285714
  0.6428571428571428  0.0714285714285714  0.4285714285714285
  0.6428571428571428  0.0000000000000000  0.4999999999999999
  0.5714285714285714  0.0714285714285714  0.4999999999999999
  0.5714285714285714  0.0000000000000000  0.4285714285714285
  0.6428571428571428  0.0714285714285714  0.2857142857142857
  0.6428571428571428  0.0714285714285714  0.5714285714285714
  0.4999999999999999  0.4999999999999999  0.4285714285714285
  0.7142857142857143  0.1428571428571428  0.7142857142857143
  0.7857142857142857  0.1428571428571428  0.7857142857142857
  0.9285714285714285  0.4285714285714285  0.0714285714285714
  0.8571428571428570  0.4999999999999999  0.0714285714285714
  0.8571428571428570  0.4285714285714285  0.0000000000000000
  0.9285714285714285  0.3571428571428572  0.8571428571428570
  0.9285714285714285  0.2857142857142857  0.9285714285714285
  0.8571428571428570  0.3571428571428572  0.9285714285714285
  0.8571428571428570  0.2857142857142857  0.8571428571428570
  0.9285714285714285  0.3571428571428572  0.7142857142857143
  0.9285714285714285  0.2857142857142857  0.7857142857142857
  0.8571428571428570  0.3571428571428572  0.7857142857142857
  0.8571428571428570  0.2857142857142857  0.7142857142857143
  0.9285714285714285  0.3571428571428572  0.5714285714285714
  0.9285714285714285  0.2857142857142857  0.6428571428571428
  0.8571428571428570  0.3571428571428572  0.6428571428571428
  0.8571428571428570  0.2857142857142857  0.5714285714285714
  0.9285714285714285  0.3571428571428572  0.4285714285714285
  0.9285714285714285  0.2857142857142857  0.4999999999999999
  0.9285714285714285  0.4999999999999999  0.0000000000000000
  0.8571428571428570  0.3571428571428572  0.4999999999999999
  0.8571428571428570  0.4285714285714285  0.1428571428571428
  0.9285714285714285  0.4285714285714285  0.2142857142857142
  0.9285714285714285  0.4999999999999999  0.7142857142857143
  0.9285714285714285  0.4285714285714285  0.7857142857142857
  0.8571428571428570  0.4999999999999999  0.7857142857142857
  0.8571428571428570  0.4285714285714285  0.7142857142857143
  0.9285714285714285  0.4999999999999999  0.5714285714285714
  0.9285714285714285  0.4285714285714285  0.6428571428571428
  0.8571428571428570  0.4999999999999999  0.6428571428571428
  0.8571428571428570  0.4285714285714285  0.5714285714285714
  0.9285714285714285  0.4999999999999999  0.4285714285714285
  0.9285714285714285  0.4285714285714285  0.4999999999999999
  0.8571428571428570  0.4999999999999999  0.4999999999999999
  0.8571428571428570  0.4285714285714285  0.4285714285714285
  0.9285714285714285  0.4999999999999999  0.2857142857142857
  0.9285714285714285  0.4285714285714285  0.3571428571428572
  0.8571428571428570  0.4999999999999999  0.3571428571428572
  0.8571428571428570  0.4285714285714285  0.2857142857142857
  0.9285714285714285  0.4999999999999999  0.1428571428571428
  0.8571428571428570  0.4999999999999999  0.2142857142857142
  0.8571428571428570  0.2857142857142857  0.4285714285714285
  0.9285714285714285  0.3571428571428572  0.2857142857142857
  0.9285714285714285  0.2857142857142857  0.3571428571428572
  0.9285714285714285  0.2142857142857142  0.4285714285714285
  0.9285714285714285  0.1428571428571428  0.4999999999999999
  0.8571428571428570  0.2142857142857142  0.4999999999999999
  0.8571428571428570  0.1428571428571428  0.4285714285714285
  0.9285714285714285  0.2142857142857142  0.2857142857142857
  0.9285714285714285  0.1428571428571428  0.3571428571428572
  0.8571428571428570  0.2142857142857142  0.3571428571428572
  0.8571428571428570  0.1428571428571428  0.2857142857142857
  0.9285714285714285  0.2142857142857142  0.1428571428571428
  0.9285714285714285  0.1428571428571428  0.2142857142857142
  0.8571428571428570  0.2142857142857142  0.2142857142857142
  0.8571428571428570  0.1428571428571428  0.1428571428571428
  0.9285714285714285  0.2142857142857142  0.0000000000000000
  0.9285714285714285  0.1428571428571428  0.0714285714285714
  0.8571428571428570  0.2142857142857142  0.0714285714285714
  0.8571428571428570  0.1428571428571428  0.0000000000000000
  0.9285714285714285  0.0714285714285714  0.8571428571428570
  0.8571428571428570  0.1428571428571428  0.5714285714285714
  0.8571428571428570  0.2142857142857142  0.6428571428571428
  0.9285714285714285  0.1428571428571428  0.6428571428571428
  0.9285714285714285  0.2142857142857142  0.5714285714285714
  0.8571428571428570  0.3571428571428572  0.3571428571428572
  0.8571428571428570  0.2857142857142857  0.2857142857142857
  0.9285714285714285  0.3571428571428572  0.1428571428571428
  0.9285714285714285  0.2857142857142857  0.2142857142857142
  0.8571428571428570  0.3571428571428572  0.2142857142857142
  0.8571428571428570  0.2857142857142857  0.1428571428571428
  0.9285714285714285  0.3571428571428572  0.0000000000000000
  0.9285714285714285  0.2857142857142857  0.0714285714285714
  0.8571428571428570  0.4285714285714285  0.8571428571428570
  0.8571428571428570  0.3571428571428572  0.0714285714285714
  0.9285714285714285  0.2142857142857142  0.8571428571428570
  0.9285714285714285  0.1428571428571428  0.9285714285714285
  0.8571428571428570  0.2142857142857142  0.9285714285714285
  0.8571428571428570  0.1428571428571428  0.8571428571428570
  0.9285714285714285  0.2142857142857142  0.7142857142857143
  0.9285714285714285  0.1428571428571428  0.7857142857142857
  0.8571428571428570  0.2142857142857142  0.7857142857142857
  0.8571428571428570  0.1428571428571428  0.7142857142857143
  0.8571428571428570  0.2857142857142857  0.0000000000000000
  0.8571428571428570  0.4999999999999999  0.9285714285714285
  0.9285714285714285  0.4285714285714285  0.9285714285714285
  0.9285714285714285  0.4999999999999999  0.8571428571428570
  0.9285714285714285  0.9285714285714285  0.0000000000000000
  0.9285714285714285  0.8571428571428570  0.0714285714285714
  0.8571428571428570  0.9285714285714285  0.0714285714285714
  0.8571428571428570  0.8571428571428570  0.0000000000000000
  0.9285714285714285  0.7857142857142857  0.8571428571428570
  0.9285714285714285  0.7142857142857143  0.9285714285714285
  0.8571428571428570  0.7857142857142857  0.9285714285714285
  0.8571428571428570  0.7142857142857143  0.8571428571428570
  0.9285714285714285  0.7857142857142857  0.7142857142857143
  0.9285714285714285  0.7142857142857143  0.7857142857142857
  0.8571428571428570  0.7857142857142857  0.7857142857142857
  0.8571428571428570  0.7142857142857143  0.7142857142857143
  0.9285714285714285  0.7857142857142857  0.5714285714285714
  0.9285714285714285  0.7142857142857143  0.6428571428571428
  0.8571428571428570  0.7857142857142857  0.6428571428571428
  0.8571428571428570  0.7142857142857143  0.5714285714285714
  0.9285714285714285  0.7857142857142857  0.4285714285714285
  0.8571428571428570  0.8571428571428570  0.1428571428571428
  0.8571428571428570  0.9285714285714285  0.2142857142857142
  0.9285714285714285  0.8571428571428570  0.2142857142857142
  0.9285714285714285  0.9285714285714285  0.1428571428571428
  0.8571428571428570  0.9285714285714285  0.9285714285714285
  0.8571428571428570  0.8571428571428570  0.8571428571428570
  0.9285714285714285  0.9285714285714285  0.7142857142857143
  0.9285714285714285  0.8571428571428570  0.7857142857142857
  0.8571428571428570  0.9285714285714285  0.7857142857142857
  0.8571428571428570  0.8571428571428570  0.7142857142857143
  0.9285714285714285  0.9285714285714285  0.5714285714285714
  0.9285714285714285  0.8571428571428570  0.6428571428571428
  0.9285714285714285  0.7142857142857143  0.4999999999999999
  0.8571428571428570  0.9285714285714285  0.6428571428571428
  0.9285714285714285  0.9285714285714285  0.4285714285714285
  0.9285714285714285  0.8571428571428570  0.4999999999999999
  0.8571428571428570  0.9285714285714285  0.4999999999999999
  0.8571428571428570  0.8571428571428570  0.4285714285714285
  0.9285714285714285  0.9285714285714285  0.2857142857142857
  0.9285714285714285  0.8571428571428570  0.3571428571428572
  0.8571428571428570  0.9285714285714285  0.3571428571428572
  0.8571428571428570  0.8571428571428570  0.2857142857142857
  0.8571428571428570  0.8571428571428570  0.5714285714285714
  0.9285714285714285  0.0000000000000000  0.9285714285714285
  0.8571428571428570  0.7857142857142857  0.4999999999999999
  0.9285714285714285  0.7857142857142857  0.2857142857142857
  0.8571428571428570  0.5714285714285714  0.5714285714285714
  0.9285714285714285  0.6428571428571428  0.4285714285714285
  0.9285714285714285  0.5714285714285714  0.4999999999999999
  0.8571428571428570  0.6428571428571428  0.4999999999999999
  0.8571428571428570  0.5714285714285714  0.4285714285714285
  0.9285714285714285  0.6428571428571428  0.2857142857142857
  0.9285714285714285  0.5714285714285714  0.3571428571428572
  0.8571428571428570  0.6428571428571428  0.3571428571428572
  0.8571428571428570  0.5714285714285714  0.2857142857142857
  0.9285714285714285  0.6428571428571428  0.1428571428571428
  0.9285714285714285  0.5714285714285714  0.2142857142857142
  0.8571428571428570  0.6428571428571428  0.2142857142857142
  0.8571428571428570  0.5714285714285714  0.1428571428571428
  0.9285714285714285  0.6428571428571428  0.0000000000000000
  0.9285714285714285  0.5714285714285714  0.0714285714285714