# Initialize LAMMPS
units metal
dimension 3
boundary p p p
atom_style atomic

# Read data from POSCAR file
include src/structure.mod
include src/potential.mod

thermo 100
thermo_style custom step temp pe ke etotal press vol

fix 1 all box/relax iso 0.0

# Perform relaxation
min_style cg
minimize 1e-10 1e-10 10000 15000

unfix 1

velocity all create TEMP_INIT 4928459 rot yes dist gaussian

# Define the thermostat and barostat settings (Nose-Hoover thermostat and barostat)
variable dt equal 0.001  # Timestep in picoseconds

# Nose-Hoover NPT ensemble for temperature and pressure control
fix 1 all npt temp TEMP_INIT TEMP_FINAL $(100.0*dt) iso 1.0 1.0 $(1000.0*dt) tchain 3 pchain 3

timestep 0.001

run $(5*STEPS)

unfix 1

# do not let the cell volume change from the NPT volume
fix holdBox all deform 1 x final 0.0 0.0 y final 0.0 0.0 z final 0.0 0.0 units box remap v

# Perform relaxation
minimize 1e-12 1e-12 10000 15000

variable etotal equal pe
print "${etotal}" file energy.txt

write_data CONTCAR.data nocoeff
