B  Ni
 1.0000000000000000
    47.2794213000000028    0.0000000000000000    0.0000000000000000
     0.0000000000000000   63.0392283999999989    0.0000000000000000
     0.0000000000000000    0.0000000000000000   17.6200000000000010
 B   Ni 
   1 4800
Direct
  0.5391212936286606  0.5000000029349564  0.4999917093251187
 -0.0007709783548722 -0.0000000023451565 -0.0000000419941669
  0.7834324365074981  0.7376480707481660  0.2000056502266002
  0.6836247746714127  0.7129390837974934  0.2000074511375595
  0.8003794319360088  0.7005834583123087  0.2000054130028056
  0.7005719742280542  0.6758666739156768  0.1999990591986833
  0.7335290408118011  0.7252933718545366  0.2000098095687504
  0.4335921244527839  0.7129766643098162  0.2999518688909126
  0.4166512049666307  0.7500331579073694  0.2999775095305194
  0.6172279740397796  0.6758750862197402  0.2999750134098363
  0.6501936161954274  0.7252944578851311  0.3000060743666452
  0.5173977531587531  0.6512268156339653  0.2998616369528794
  0.5833368273830842  0.7500119231599613  0.2999995754378487
  0.6341875932235566  0.6387942937266163  0.2999470645402798
  0.5673085549598896  0.6635577279254753  0.2999253032132069
  0.4839602112413015  0.6635684622409164  0.1998910916454358
  0.3836848377954925  0.7006121908520145  0.2999633970077422
  0.8672318672619941  0.6758618408005750  0.2000016035223464
  0.9001905711181407  0.7252910554756873  0.2000012919579990
  0.8333378094632371  0.7500022127742090  0.2000023702525457
  0.7839008596503939  0.6758623251683905  0.3000035553542237
  0.8168589947970057  0.7252915970412127  0.3000044181950653
  0.6840938699101629  0.6511556281458017  0.2999814893935930
  0.7170459534559113  0.7005831218745124  0.3000074671964661
  0.7500057136713465  0.7500026614293048  0.3000071830349512
  0.8008558717961641  0.6387779790189149  0.2999940115144720
  0.7339883108709431  0.6635193778327857  0.2999972736566941
  0.7669535776677270  0.7129349766549398  0.3000078578976251
  0.6671402156038511  0.6882268352765670  0.2999966709645696
  0.7000995394720798  0.7376482027369052  0.3000109755462533
  0.8173216148784930  0.6635196804608339  0.2000012953777698
  0.7175276305956378  0.6387822632329603  0.1999794847728130
  0.6002830994724124  0.7129457413527548  0.2999899454879096
  0.3337862518632334  0.6882401050828031  0.2999813968231176
  0.6666752965425056  0.7500055198723211  0.2000107284959894
  0.5004490635062544  0.6882761036095811  0.2999228073176315
  0.7674305196814052  0.6511544055486963  0.1999952775636200
  0.5503661951620491  0.7006122914504672  0.2999594724395210
  0.3008375977864943  0.6387860068110223  0.2999892642648312
  0.4844223919216660  0.6017680895130830  0.2997893337906397
  0.3333202708564532  0.7500193251571328  0.1999914807467924
  0.2838837384805727  0.6758696869627370  0.2999936072346079
  0.3502639033895088  0.7129534861308343  0.1999808128014950
  0.4340587174293193  0.6511890269464361  0.1999016026103510
  0.4670215725671499  0.7006242996244354  0.1999383947460849
  0.3667438101564882  0.7376712651814853  0.2999813667565535
  0.7504776147413381  0.6882262833376136  0.2000063935444176
  0.3168416321979285  0.7253058716135964  0.2999896774878398
  0.3841580807307639  0.6387957812958758  0.1999366285726140
  0.4171110096003530  0.6882578666197532  0.1999416578225816
  0.1840799685356033  0.6511508541509836  0.2999987277577880
  0.2170316526742925  0.7005850253050100  0.2999971763275581
  0.2499922809527000  0.7500092520400317  0.2999969692556001
  0.5334222709081550  0.7376710951235264  0.2999815900319009
  0.6506585410472827  0.6635294124730005  0.1999774040091256
  0.9825828262756869  0.8488513550945932  0.4999999360786884
  0.4835068744418937  0.7253296675598583  0.2999608436935877
  0.4001692313535538  0.7253205029281232  0.1999712095131552
  0.3672066745048637  0.6758816003746208  0.1999623881151651
  0.5508450613866029  0.6388269623788978  0.1998649364778662
  0.4674748426526071  0.6388604486298434  0.2998423288658518
  0.5838054526257512  0.6882478524781706  0.1999646530601536
  0.9670399234271210  0.7005811517712995  0.2000007577484676
  0.6167686471515412  0.7376565073303328  0.2000037602933993
  0.4500797995814094  0.7376812861873941  0.1999711713701387
  0.5169414556888294  0.7129697500688439  0.1999579222492160
  0.6007606989358418  0.6511781136922273  0.1999265041520440
  0.6337157404448124  0.7005925300340784  0.1999957160678291
  0.5338879584900129  0.6759044157358719  0.1999176890604649
  0.5668579487550798  0.7253122019496433  0.1999852881999654
  0.4999954160885221  0.7500304933472574  0.1999825372950780
  0.4505308016744703  0.6759201951923633  0.2999084233454296
  0.3507359305185852  0.6511708149832850  0.2999662464267480
  0.0013783142693764  0.5643740515325966  0.3000007648942198
  0.1844546898043745  0.5894947187283064  0.2000034284210392
  0.2669381321814311  0.7129419098255058  0.2999950398682187
  0.8841839809724783  0.6387767661722934  0.1999992682533196
  0.4011135109451315  0.6016688276634220  0.1999199292868575
  0.3342325420727457  0.6264868488719391  0.1999707484968840
  0.3177931033737573  0.6016652193028851  0.2999831939569644
  0.1851601988892752  0.5263140794019109  0.3000082122034534
  0.2179958569680955  0.5769952740276973  0.3000037295375174
  0.0516499714597304  0.5175116721352542  0.1999994472650061
  0.2339731369098885  0.6635210095198272  0.2999987214478338
  0.3016438012399402  0.5175129134894899  0.3000025476683559
  0.2353035210453705  0.5396083411071051  0.3000041303424029
  0.2677873744395918  0.5895008027906118  0.2999963284366796
  0.2010399671082770  0.6140901171357310  0.3000018779207111
  0.3186352173682278  0.5396088477713198  0.1999932511766719
  0.2183199077504920  0.5175119005321561  0.2000045546586832
  0.9340874074455591  0.6511505600118176  0.2000004482864842
  0.3678010509099482  0.5527616335773592  0.1999821714405533
  0.3518098475237036  0.5263232154722300  0.2999938892390159
  0.3846416324960348  0.5770210419627785  0.2999531312937814
  0.4175457640378560  0.6265275440215997  0.2998903664242182
  0.4684887191077078  0.5174899595976710  0.3009984166645752
  0.4019344322550568  0.5396371505000346  0.3000224269739712
  0.4344201930902268  0.5895505779101479  0.2998581986643679
  0.3347055395497457  0.5643850328638903  0.2999877992404494
  0.3676912207580132  0.6141133633177260  0.2999492724625896
  0.4853225469828700  0.5395620455394363  0.2003704201203273
  0.3850146496617954  0.5175110176036790  0.2000960541337394
  0.4180390550244489  0.5643683479470426  0.1999863275086296
  0.4510166511926373  0.6141255458069127  0.1998703042007283
  0.3511132032890957  0.5895010765826162  0.1999641924287172
  0.4352403638659101  0.5262532942308895  0.2003887682426169
  0.4679833440227637  0.5770051266668613  0.1999678999221977
  0.2513773645265349  0.5643751777697961  0.1999968584438155
  0.1671287651020238  0.6882233795510653  0.2999979562421003
  0.2509080886777889  0.6264816204723267  0.2999997310036334
  0.2843683760640673  0.6140943154717800  0.1999911917637986
  0.2844698773095078  0.5527674686720234  0.2999961840274211
  0.1680455734764041  0.5643738295028259  0.3000035157401387
  0.9839803737742590  0.6635169784673350  0.2000006604658059
  0.9500947838198553  0.7376464620677203  0.2000006418561780
  0.9166691111467827  0.7500015066942356  0.3000009026635500
  0.9675137753096030  0.6387757627228061  0.3000007868472384
  0.0009126646104694  0.6264768376322513  0.2000006022651253
  0.9505617309826717  0.6758607272500082  0.3000010184805663
  0.9835214578532503  0.7252902648074951  0.3000007988562092
  0.0177892031482079  0.5894953902565517  0.2000004984805133
  0.4006203940128242  0.6635568295391019  0.2999323633880406
  0.9006501422146378  0.6635178357128013  0.3000007244425160
  0.1346617830680309  0.5769926815313989  0.2000009505214865
  0.0344706076029344  0.5527626288548902  0.2000000212661147
  0.9336161659801876  0.7129337186039545  0.3000011357993668
  0.8338063373939117  0.6882237728328897  0.3000031364306708
  0.8667634024113288  0.7376471234047056  0.3000019490665889
  0.0343753228969561  0.6140888191267116  0.3000007539097510
  0.0847111531716538  0.5643735878397027  0.1999995525174864
  0.9171370469205652  0.6882230674545178  0.2000010826889248
  0.0686359298451734  0.5396068950467707  0.2999986545787378
  0.8837090572048649  0.7005819275108166  0.3000018651224285
  0.8507579854205599  0.6511515182875000  0.2999994244171883
  0.3013252651635657  0.5769973678528071  0.1999859944133241
  0.1519711740864957  0.5396060787201895  0.2000028024729545
  0.2011385416964531  0.5527623137856279  0.2000040050914800
  0.8502856878998414  0.7129347291005116  0.2000027954672655
  0.2344629418191681  0.6016555693927012  0.2000009363648555
  0.0677984053732880  0.6016536871084360  0.2000000201541068
  0.1675753067601767  0.6264760792990353  0.2000011650079001
  0.1178044054859196  0.5527623583476381  0.2999991111784323
  0.1511312574403583  0.6016538704880130  0.2999999534046076
  0.0184908301262552  0.5263141399526811  0.2999997331407117
  0.0513285620259114  0.5769935565071913  0.2999998096047329
  0.0842439281493454  0.6264762667589243  0.2999997934221725
  0.1349845555353479  0.5175116354412687  0.3000013694069072
  0.1011215874083265  0.5894949253091946  0.2999988686251201
  0.2684933959284124  0.5263152499495170  0.1999888756946618
  0.0648408580813814  0.9736866033055936 -0.0000000696169833
  0.9665749463202717  0.7623559350241776  0.3000004725236426
  0.7161113632917134  0.8241424776337188  0.3000022760924920
  0.3827666201426261  0.8241602064123187  0.2999975191505189
  0.4157523609041302  0.8735360329397149  0.3000004440202615
  0.3997088352550527  0.7870932930462522  0.2999913226477119
  0.4326838216581914  0.8365011578426782  0.2999991581561358
  0.3328579770885113  0.8117961099392269  0.2999976447576228
  0.1996236397651558  0.7994265480535002  0.2000000127609717
  0.1826840082997699  0.8364894682870466  0.2000001667823288
  0.4830501304760953  0.7870914084138696  0.1999942212831358
  0.3832270555839581  0.7623810369048812  0.1999873660661481
  0.4161931750354882  0.8118008883893224  0.1999963797767892
  0.3493473536470350  0.8365008213764045  0.1999990430273806
  0.4331364211516626  0.7747394881484699  0.1999881147658837
  0.4661057943186388  0.8241581405108240  0.1999993622200897
  0.1162931131019550  0.7994224184244678  0.3000000095713170
  0.2824827831549726  0.8612364617148440  0.2000002802934823
  0.5993586219136349  0.8364876216840375  0.3000047073456709
  0.4995328766138974  0.8117941018620067  0.3000004435446984
  0.5324910393493779  0.8612310466248222  0.3000030717527761
  0.6497262403285269  0.7870720399736564  0.2000080361338653
  0.5499106994388381  0.7623733105747192  0.1999977462911256
  0.5828718657983785  0.8117855243400548  0.2000056267904191
  0.6158252267570294  0.8612274152436821  0.2000021044368486
  0.5160234714945673  0.8364943950825582  0.2000025163590893
  0.5998198869650080  0.7747199715825431  0.2000067458263043
  0.6327790227513813  0.8241437924991232  0.2000044034975936
  0.5329649063653572  0.7994341607774064  0.2000020688975961
  0.5659197783533630  0.8488558452332284  0.2000034216375310
  0.4990898642910735  0.8735311210478027  0.2000018086297195
  0.4496221386487139  0.7994434390682084  0.2999945606218309
  0.4825828286188245  0.8488622586979337  0.3000016412903362
  0.3662854126892022  0.7994415462749788  0.1999957433285595
  0.2325776959211606  0.8488593299590333  0.2000003528369746
  0.3658165057214783  0.8612399230818765  0.2999997819429034
  0.3992446506742816  0.8488673728835485  0.1999993826505734
  0.4665641121297753  0.7623855104394768  0.2999830304862890
  0.4491540043452943  0.8612378091568755  0.2000007015714992
  0.0998108563205190  0.7747124731406942  0.2000000734234985
  0.2175064715481295  0.6387767120745844  0.2000016640762129
  0.0324877829204665  0.8612258823740642  0.3000000252926003
  0.1497163219995920  0.7870712920660768  0.1999999808901965
  0.0824200050928794  0.8735251316535821  0.3000001070261477
  0.1332374432758322  0.7623573468435971  0.2999996320748381
  0.0663853972395727  0.7870689906173638  0.3000001921679466
  0.1657517235600825  0.8735280160306090  0.2000001826281204
  0.3498009807348287  0.7747323122578770  0.2999921717580677
  0.0499063090546465  0.7623557698638731  0.2000002047683800
  0.1492465809084385  0.8488545759151400  0.3000001817867372
  0.0164796218052477  0.7747116961578859  0.3000003284855791
  0.0828653183512535  0.8117802553936725  0.2000000876926501
  0.1158196804115636  0.8612276453392662  0.2000000642294644
  0.0160209440733623  0.8364846145819996  0.2000000072583861
  0.3324164424165329  0.8735363804498958  0.2000000258296679
  0.2829540658824179  0.7994330044983753  0.2999983795083605
  0.7999116732281331  0.7623571057244201  0.3000033216214109
  0.2165672299205090  0.7623618893057680  0.1999994701592851
 -0.0004664178008532  0.8117794619809012  0.3000000601520166
  0.0993528121656178  0.8364859200186053  0.3000001132633801
  0.3159096116693036  0.8488645652756339  0.2999997742611564
  0.2664710905015910  0.7747224466502354  0.1999986829715259
  0.1831417107834097  0.7747158396244661  0.2999991579855976
  0.5663900539721833  0.7870776674475350  0.3000042382613701
  0.2161027459159679  0.8241480568449611  0.2999999776604336
  0.0494401755548491  0.8241416123251204  0.3000001007007490
  0.2490835769194245  0.8735321816632654  0.3000004348827320
  0.2998970741431781  0.7623696846775960  0.2999949865204451
  0.2330468909180759  0.7870763528462728  0.2999989267780543
  0.2660151385045887  0.8364947245206820  0.3000000065079654
  0.1661965816980685  0.8117832006313084  0.2999998920709522
  0.1991512425255973  0.8612313022037226  0.3000003136756389
  0.3163764034215536  0.7870847316422256  0.1999971398329023
  0.2495268466219295  0.8117889688214517  0.1999998968497962
  0.8992505183970437  0.8488513181235151  0.1999998942840022
  0.9157554651878367  0.8735238684810864  0.2999997887198153
  0.2000871293500336  0.7376503973049644  0.2999978580961782
  0.6492529392727477  0.8488528630814276  0.3000026155605020
  0.0004674824415265  0.6882221501385049  0.3000009621210156
  0.0334258811162691  0.7376459858836956  0.3000005601022131
  0.0508440693399362  0.6387749261056191  0.2000004754153404
  0.0837977335252953  0.6882216619716395  0.2000002323006240
  0.1167565114898449  0.7376466695799913  0.1999999427207800
  0.1177065862653334  0.6140880397556667  0.1999998528451479
  0.1018253859509259  0.5263137790628606  0.1999995311728587
  0.1007480596670077  0.6511490497333916  0.1999999289511193
  0.1337007356368233  0.7005810201190142  0.1999996775813247
  0.0338920750555196  0.6758598789355679  0.2000005742979945
  0.0000004846561013  0.7500009314591840  0.2000004014874988
  0.9496297595131999  0.7994209805816042  0.3000001198130994
  0.9825828435352374  0.8488513020228122  0.2999999226856810
  0.6332464589474031  0.7623596675432451  0.3000095627700702
  0.1002778996532913  0.7129331606705525  0.2999999239679640
  0.2504577243912434  0.6882280070485265  0.1999982817582873
  0.2834157286763135  0.7376574124006238  0.1999963755972946
  0.1836076302811767  0.7129354654948025  0.1999992835047150
  0.2674086116809155  0.6511555868336018  0.1999967537745528
  0.3003591650968870  0.7005923475199920  0.1999922759814019
  0.2005528429989540  0.6758619489368658  0.1999998898137116
  0.2335123514362203  0.7252962854078789  0.1999987022299534
  0.1666619550389576  0.7500035824614032  0.1999996788037463
  0.1172229272535865  0.6758600386360057  0.2999991799943425
  0.1501831460187567  0.7252915901361867  0.2999988254893494
  0.0174178433679557  0.6511496861469365  0.3000009854003487
  0.0503706088774009  0.7005805272899553  0.3000007042352011
  0.0833317035163373  0.7500011711450070  0.3000001851360782
  0.1341755502568547  0.6387751096395982  0.2999986591371486
  0.0673110186296421  0.6635163221341696  0.3000005190028754
  0.8498162501091848  0.7747125696953641  0.3000012475401109
  0.3172990139806389  0.6635284031728914  0.1999836915244879
  0.0169470370392065  0.7129329781779464  0.2000005447899814
  0.8827760515375449  0.8241414972678284  0.3000000428819735
  0.1506411998760253  0.6635164787127925  0.1999996926868726
  0.0668522731669655  0.7252899464020717  0.2000002940852741
  0.6163004245859773  0.7994244111856198  0.3000078718343652
  0.5494441702597387  0.8241482941833991  0.3000045746587536
  0.6826915877395385  0.8364856607101468  0.2000020591866656
  0.7664844897850688  0.7747131391318187  0.2000034773323036
  0.6991578932454283  0.8612264446792048  0.3000008674441970
  0.8163899807121420  0.7870695533834922  0.2000012594153539
  0.7165804087940884  0.7623581212151037  0.2000077314567237
  0.7490902259232501  0.8735244153278556  0.3000000498471396
  0.2994333588797906  0.8241547475752508  0.1999995203232104
  0.7994436571966402  0.8241418046459866  0.2000004149088482
  0.7330578627156334  0.7870701823019299  0.3000046783824020
  0.7660240563671187  0.8364852598622220  0.3000006561466682
  0.6996336266470540  0.7994225449447679  0.2000043344334882
  0.7325854525096465  0.8488519251084411  0.2000005404480563
  0.6657575335211865  0.8735247217864384  0.2000007651762502
  0.8324228428183622  0.8735239989360410  0.1999998310628128
  0.6831519531104887  0.7747138122076463  0.3000087429129522
  0.5164776188627126  0.7747309213425726  0.2999947985774544
  0.9661082001946553  0.8241412273867704  0.1999999814532475
  0.7824904346236854  0.8612258606664051  0.1999999950817941
  0.7495371113490478  0.8117804111449195  0.2000016553295501
  0.8997219594294289  0.7870690866609923  0.3000003970332453
  0.7829656775327541  0.7994219388489544  0.3000018132867839
  0.9326887852570627  0.8364845256947122  0.2999999234959822
  0.5824245779367705  0.8735264292906934  0.3000023890201466
  0.8328694479195536  0.8117800705265728  0.3000004752528105
  0.6662047078741163  0.8117813524016892  0.3000053012310253
  0.8658230834646673  0.8612256357859239  0.2999998270380070
  0.9830537633793014  0.7870686730700407  0.2000001515309948
  0.8832434627908297  0.7623565138286195  0.2000009065370331
  0.9162015714340467  0.8117795947745634  0.2000000568535754
  0.9491555226525371  0.8612254686050503  0.1999999045301898
  0.8493564195109126  0.8364847560631059  0.2000000243938447
  0.9331480180645725  0.7747119908566149  0.2000003518981099
  0.8662977643710326  0.7994213365003692  0.2000003763817944
  0.3981757663656315  0.9736899354449325  0.4000002591376673
  0.6826915377392350  0.8364860284833857  0.4000020700422657
  0.0329615781937685  0.7994209589162328  0.2000001234333883
  0.6346816382158124  0.5770082453759586  0.1999220897092595
  0.2824830149644634  0.8612358902804290  0.4000002265049861
  0.1826842888862274  0.8364892287956626  0.3999999645126927
  0.2994336745382327  0.8241540497496768  0.3999991412602686
  0.1996241542474126  0.7994262463441285  0.3999992675264559
  0.2325780167206160  0.8488587947921903  0.4000001346526249
  0.9313647085408384  0.9603930190830624  0.4999999444886480
  0.9174366923068950  0.5000000022377938  0.5000002529084663
  0.1162933431287063  0.7994224256821417  0.4999999043184107
  0.1492466894399498  0.8488544730777631  0.4999999814544148
  0.0164796693602135  0.7747117482885749  0.5000001405181480
  0.0824200030937202  0.8735251297961326  0.5000000284954059
  0.1332379817272517  0.7623574844911396  0.4999994454299337
  0.0663855399962497  0.7870690348792504  0.5000001010651700
  0.9822106734484943  0.9105048466227548  0.3999998790923742
  0.8821967116388639  0.9472371558217091  0.4999998942655430
  0.3662849587139657  0.7994412992772881  0.3999960962322779
  0.3992441391763716  0.8488669783023916  0.3999995926774643
  0.3324164644514926  0.8735360095436815  0.4000002184378355
  0.2829544814175085  0.7994322426035985  0.4999987940143010
  0.3159096627473290  0.8488639983280849  0.4999999113007138
  0.1831422982507221  0.7747157999143227  0.4999989366578410
  0.2161030595593301  0.8241476491032753  0.4999995693245717
  0.2490837356070005  0.8735317623861065  0.5000001311084343
  0.2998976449191618  0.7623694349215049  0.4999975014954862
  0.2330474400434727  0.7870759212869428  0.4999986614799903
  0.2660154152117979  0.8364940740247824  0.4999997317941339
  0.1661968656406431  0.8117830820843720  0.4999996557950584
  0.1991513897314173  0.8612310245954721  0.5000000243814959
  0.3163768918695501  0.7870842017271920  0.3999966029266933
  0.2165682011833175  0.7623617282121871  0.3999978514480213
  0.0993528963744981  0.8364859077033440  0.5000000363732108
  0.8319562176839307  0.9356260107220000  0.4999998639348400
  0.1657518496363970  0.8735278621112376  0.4000002059051752
 -0.0004664290186782  0.8117795300832890  0.5000000408653632
  0.2664720799176796  0.7747217432841174  0.3999973143243071
  0.0494402154187361  0.8241416458059617  0.5000000718605526
  0.7989596100382560  0.8859118699862915  0.4999998568138389
  0.5008950669574581  0.6265331362239120  0.1998439320671558
  0.8341029724619736  0.4999999993192368  0.3999935025405874
  0.7820057766897601  0.9230065258066859  0.4999998171434908
  0.8480319044056356  0.9603929717016630  0.3999998615066581
  0.9322009695577979  0.8983461220516318  0.3999998197207610
  0.9655293260150648  0.9472372263763637  0.3999999053515171
  0.8650184293803803  0.9824882437901050  0.4999999073745228
  0.2495274050965516  0.8117882190818809  0.3999992538089766
  0.8148436017965959  0.9736857835695538  0.4999998695869917
  0.8822922273583350  0.8859115151788424  0.3999997902493947
  0.9152890508684735  0.9356259643470157  0.3999998816943440
  0.6822028148428561  0.8983470847945596  0.4999999721693441
  0.7155308344006752  0.9472374185281669  0.4999997546460978
  0.7507740621959367  0.4999999968149448  0.4999969761975805
  0.0324877750051229  0.8612259168399637  0.4999999895438947
  0.1497167703821170  0.7870712931380137  0.3999995447154329
  0.5678075100600937  0.6017057466421389  0.1998440112298804
  0.9815090331493338  0.9736859383269754  0.4999999655373360
  0.8981765477720621  0.9736857759734472  0.3999999220940567
  0.8653386161114834  0.9230063160136053  0.3999998225554093
  0.0499064869822296  0.7623558319447140  0.4000003016066798
  0.9656247477908401  0.8859115408806669  0.4999999087687035
  0.0828654256924384  0.8117802563881312  0.4000001245136217
  0.4661042906350762  0.8241570458209944  0.3999996371488215
  0.1158197288033353  0.8612275934461252  0.4000001287429897
  0.9483511976569290  0.9824882846123655  0.3999999266445202
  0.0160209392442944  0.8364846537088824  0.4000000096960618
  0.0998111828187654  0.7747125285117800  0.3999999927422611
  0.1327718770791290  0.8241436312783951  0.3999999923848448
  0.0329616346416842  0.7994210095746421  0.4000001844393782
  0.0659149372390522  0.8488520688739511  0.4000000756327324
 -0.0009121444556263  0.8735240320257489  0.3999999358534070
  0.9486712973489027  0.9230063693271301  0.4999999229248372
  0.8488683297861320  0.8983462285976862  0.4999998298157991
  0.4995311408953705  0.8117930061306355  0.4999998423585623
  0.3340961255960004  0.5000000003649604  0.4000036118455783
  0.7646988982665335  0.9603930657298650  0.4999998119089512
  0.3832258366293288  0.7623826843781386  0.3999896164490355
  0.8992505692410345  0.8488514105018288  0.3999998510594268
  0.8324229505079737  0.8735241340808870  0.3999998064663734
  0.8159182510844307  0.8488518759911027  0.4999999978391838
  0.6831505624997706  0.7747127893292991  0.5000013155577562
  0.7161113572071031  0.8241427616971442  0.5000007665388803
  0.5499054151357238  0.7623694111821547  0.3999971718280438
  0.7322125878283356  0.9105052313702718  0.4999998283194024
  0.7999113337170718  0.7623569549536655  0.5000006302800534
  0.7330574671646992  0.7870700981378562  0.5000011009877362
  0.7660242379899038  0.8364855528430714  0.5000002429301832
  0.6991580131914312  0.8612268057325715  0.5000003113554689
  0.8163900426540966  0.7870697028320784  0.4000012097161374
  0.7165787098108941  0.7623570798144020  0.4000056861354944
  0.4331340390433444  0.7747400879644869  0.3999906026496031
  0.8159180950145277  0.8488516939192429  0.3000000345384621
  0.8498162294708119  0.7747126166821625  0.5000002611121647
  0.8827761471591651  0.8241416239769623  0.4999999440984449
  0.9157554851004275  0.8735239106692080  0.4999998530215685
  0.9665749136202821  0.7623559937430061  0.5000001486142359
  0.8997219816484540  0.7870691835019337  0.5000000773772312
  0.9326888197551790  0.8364845996258428  0.4999999120201998
  0.8328695863793310  0.8117802437896789  0.5000001737691059
  0.8658231636114547  0.8612257351002905  0.4999998768123310
  0.9830537451574451  0.7870687225469237  0.4000002170223132
  0.8832433500215621  0.7623565246058210  0.4000007436253374
  0.9162016197451071  0.8117796834624230  0.3999999981076278
  0.9491555334521585  0.8612255176346867  0.3999998478685601
  0.8493565686697876  0.8364849176350136  0.3999999969869095
  0.9331479640506448  0.7747120425179463  0.4000003255027386
  0.9661081989879033  0.8241412963066781  0.3999999821266046
  0.7495371972059928  0.8117807491093547  0.4000016824978680
  0.6652903907158740  0.9356265743445763  0.4999998457995444
  0.7490903833632225  0.8735246832009811  0.4999999551232603
  0.7824905988763673  0.8612261193686970  0.3999999981458306
  0.7829657627459209  0.7994221162798820  0.5000005699675364
  0.6662042100047895  0.8117811525988772  0.5000012591160352
  0.4830470772925359  0.7870896683192703  0.3999957524338091
  0.4491534543459515  0.8612372569417588  0.4000006222110914
  0.4157520801206156  0.8735358204220557  0.5000002036728298
  0.4665611960155427  0.7623852845328378  0.4999975842483275
  0.4990895664117894  0.8735304373975225  0.4000016260580262
  0.4496206441323942  0.7994424028529041  0.4999988937120330
  0.4825821878424152  0.8488615110081078  0.5000003295808017
  0.5160224553603497  0.8364929772082194  0.4000022304921509
  0.8988781388741660  0.9105047115985668  0.4999998371302359
  0.3997075714905854  0.7870935636428392  0.4999982648566687
  0.6327783801484518  0.8241434273780339  0.4000038854791323
  0.5329623330599977  0.7994317546058897  0.4000010977529598
  0.4326830457690725  0.8365006304989904  0.4999998637691385
  0.3328579505546881  0.8117954308416747  0.4999990741708031
  0.3658163565427457  0.8612395294466547  0.5000000893409053
  0.5324906866919548  0.8612305492064721  0.5000006594130210
  0.5828703482856077  0.8117835805293997  0.4000046415834255
  0.4161920147996460  0.8118004693719680  0.3999969890881380
  0.5663877558645516  0.7870749849669791  0.5000000890218246
  0.3827661411729772  0.8241597373453878  0.4999994774483373
  0.3498009029243753  0.7747319567758502  0.4999978820044401
  0.7994438675927878  0.8241420868400544  0.4000004816150650
  0.6497243785714524  0.7870705581769334  0.4000060428109528
  0.6996330918211618  0.7994224883141252  0.4000040252899238
  0.3493472804740969  0.8365003137882502  0.3999991319465448
  0.7325856508268230  0.8488523329575673  0.4000006094755306
  0.5659192224174130  0.8488551832398389  0.4000030178944636
  0.6657575931341004  0.8735251462130812  0.4000007760445046
  0.6162990070064497  0.7994231837946306  0.5000012372493746
  0.6492528705934418  0.8488531022916281  0.5000007910423955
  0.5164743552962221  0.7747293388219288  0.4999986200253220
  0.5494431469245589  0.8241469717810846  0.5000008418772063
  0.5824244689320855  0.8735264575266406  0.5000006007215849
  0.6332436501727285  0.7623570045614516  0.5000006697129576
  0.5993580920843902  0.8364872404549131  0.5000010888594494
  0.1821975475542032  0.8983506314232940  0.5000001155272826
  0.5344639371215372  0.5527780447375220  0.2001769575349166
  0.4656249563161469  0.8859191914661388  0.5000003833489226
  0.0659149209827452  0.8488520640274653  0.2000000382410473
  0.8846658793157607  0.5769943782638380  0.2999961554567320
  0.9175826226634249  0.6264776820337747  0.2999996376729645
  0.9019699871688280  0.5396070781489064  0.2999992401719941
  0.9344579920222614  0.5894959592393069  0.2999997733707014
  0.8347168003286882  0.5643744046598740  0.2999882177973294
  0.7011311141645501  0.5527578139000091  0.1999668778616457
  0.6844735484116280  0.5895023656252727  0.1999405623875034
  0.9853024354585952  0.5396070177806557  0.2000005893306720
  0.8849838760727157  0.5175117401973981  0.1999977848513576
  0.9180463720604879  0.5643743470123710  0.1999993590456350
  0.8511279448877502  0.5894964663657237  0.1999932398813217
  0.9351580646475561  0.5263141727472656  0.2000005376207691
  0.9679963707678958  0.5769939731659726  0.2000004521946146
  0.6178549894791400  0.5528053135719114  0.2999113009062797
  0.7843872380317682  0.6140920408189818  0.1999840711034215
  0.0980288113943264  0.9603940215430535  0.5000000513752578
 -0.0013785118305207  0.9356262052148647  0.4999999757798457
  0.0316833037577183  0.9824884112313952  0.4999999879745278
  0.1488750140716823  0.9105077791028727  0.4000002110021674
  0.0489570217629853  0.8859121841199782  0.4000000287900823
  0.0819535952203810  0.9356271857244424  0.4000000658945732
  0.1150147908397283  0.9824887372403557  0.4000001248286467
  0.0146970225924326  0.9603932405370170  0.3999999449761290
  0.0988654953687531  0.8983478616217638  0.4000000943594969
  0.1321935888032543  0.9472390079771236  0.4000001564941315
  0.0320036569260248  0.9230068357648181  0.3999999755654848
  0.0648408520269766  0.9736865843724727  0.4000000136010940
  0.0007701109681025  0.4999999949342787  0.4000006154220324
  0.9511378879391115  0.5527630140004751  0.3000006769638576
  0.9844671755597606  0.6016543716167184  0.3000008789467998
  0.8678065108943297  0.5527630304154052  0.1999948081057596
  0.7344807030591260  0.6016584831263324  0.1999648690988823
  0.8677153775614128  0.6140903757449045  0.2999960157769912
  0.9011364024338168  0.6016549884865434  0.1999982927202760
  0.9683155643977979  0.5175117827692440  0.3000012702275084